O  Si Ru C  O  H                        
   1.00000000000000     
    20.3096463179999986    0.0000000000000000    0.0000000000000000
     0.0000000000000000   19.8625212309999988    0.0000000000000000
     0.0000000000000000    0.0000000000000000   13.3711533340000006
   O    Si   Ru   C    O    H 
   192    96     2     1     1     2
Selective dynamics
Direct
  0.5029152078806760  0.0735661894583401  0.7069315386552546   F   F   F
  0.9975466673707771  0.5722058075014971  0.2087404078227735   F   F   F
  0.5029624760597926  0.4265087952066366  0.7071140210439566   F   F   F
  0.9977417166495164  0.9281938695324903  0.2091967893387720   T   T   T
  0.4981249596151662  0.9298733057685535  0.2887291038726346   T   T   T
  0.0032186675718719  0.4269332126258476  0.7921410917536349   F   F   F
  0.4977201395693953  0.5720240581677629  0.2903982852493669   F   F   F
  0.0031940487285809  0.0729670711560004  0.7917155488062235   F   F   F
  0.3878580590061063  0.0669557497023305  0.7965550714998599   F   F   F
  0.1133761742546540  0.5681645279949095  0.2964374052850900   F   F   F
  0.3878585513829691  0.4330437158489033  0.7965745163445632   F   F   F
  0.1141668819381342  0.9314491516129980  0.2961420338207769   T   T   T
  0.6137704756677168  0.9317332799186012  0.2024264268262820   T   T   T
  0.8876973886060000  0.4327340874825722  0.7036505950519540   F   F   F
  0.6135823246195855  0.5682783101262814  0.2033452112979859   F   F   F
  0.8876117150313476  0.0673660702203094  0.7035017672021553   F   F   F
  0.4009158934876922  0.1389420793012306  0.6318183472264991   F   F   F
  0.0977863862584414  0.6393741708403589  0.1313561079359743   T   T   T
  0.4010424343422088  0.3610528551031749  0.6318131120760029   F   F   F
  0.0975067527183143  0.8603486473918313  0.1322747722527420   T   T   T
  0.5972743109737817  0.8609726766709130  0.3678683503287919   T   T   T
  0.9019275724051070  0.3610412755057339  0.8685727932285801   F   F   F
  0.5987737817877024  0.6389970384065040  0.3676201810700986   T   T   T
  0.9020590370282804  0.1389420793012306  0.8685144586944844   F   F   F
  0.4059804819295323  0.0047441107251274  0.6216748692024225   F   F   F
  0.0951764481632935  0.5048734691519883  0.1227493215433029   F   F   F
  0.4060060855265561  0.4952754932564361  0.6217646146394884   F   F   F
  0.0956931049317258  0.9949043592551192  0.1226274530641093   T   T   T
  0.5950886974917395  0.9956757946328366  0.3756272592097941   T   T   T
  0.9063176045407673  0.4953847442409796  0.8779654010958922   F   F   F
  0.5950753553639530  0.5043549045709739  0.3761724867226022   F   F   F
  0.9063220359325612  0.0045784721356554  0.8776991562992720   F   F   F
  0.3240115508150296  0.0382408653547230  0.9638233649770527   F   F   F
  0.1763487135088937  0.5378783426207647  0.4641544259475907   F   F   F
  0.3240637427628101  0.4618356296925228  0.9638667419382969   F   F   F
  0.1767014144983273  0.9614995207769781  0.4643166211162446   T   T   T
  0.6770802872196230  0.9618474521144121  0.0357062236817957   T   T   T
  0.8239267064522622  0.4615728231767093  0.5363531343077170   F   F   F
  0.6766272432731029  0.5380862719139259  0.0360410196459711   F   F   F
  0.8238114902656548  0.0383813309062759  0.5362544143269474   F   F   F
  0.3213891438978167  0.9535426211353428  0.8074214418103681   T   T   T
  0.1776756691622836  0.4534600565180398  0.3068979838534531   F   F   F
  0.3217288916650816  0.5466229525310524  0.8071622342821030   F   F   F
  0.1777391857779733  0.0465283328965143  0.3069406129360601   F   F   F
  0.6782954160944996  0.0464276407448594  0.1929818569531037   F   F   F
  0.8214904257201781  0.5463853190531580  0.6930224916677332   F   F   F
  0.6783412071430277  0.4536226743429594  0.1930925429921473   F   F   F
  0.8215379695938652  0.9535560448992418  0.6926486369554656   T   T   T
  0.2563456752757816  0.0684228343519067  0.8017760123010191   F   F   F
  0.2448954512611010  0.5671913383491827  0.3029798476470020   F   F   F
  0.2563604465817590  0.4316430880194133  0.8018560353157369   F   F   F
  0.2458603527996147  0.9332989388935323  0.3037315648509483   T   T   T
  0.7452028775179056  0.9321795896682039  0.1975861263144899   T   T   T
  0.7562411358383727  0.4314381794907973  0.6983982433478246   F   F   F
  0.7450789522901999  0.5677879393477312  0.1974182730585952   F   F   F
  0.7561874667600037  0.0686030733033647  0.6982838179155664   F   F   F
  0.2923458098203184  0.1261305133856823  0.1042684924160469   F   F   F
  0.2082808457479871  0.6260887979660290  0.6042620458338327   T   T   T
  0.2924221282345201  0.3739550439552133  0.1043746911832386   F   F   F
  0.2092219532577213  0.8737540149411835  0.6051740038721256   T   T   T
  0.7085966536290772  0.8738657527284974  0.8949605213148437   T   T   T
  0.7920625375806196  0.3741438417395671  0.3955589968855548   F   F   F
  0.7086220010885990  0.6260574644864836  0.8956999660888829   T   T   T
  0.7918325975842819  0.1258395130674046  0.3955350647690068   F   F   F
  0.2009178267365215  0.0428349447738867  0.0293983615460078   F   F   F
  0.2996969964270377  0.5426934413128066  0.5294113247508747   F   F   F
  0.2010374743149157  0.4573070001719373  0.0296182378668064   F   F   F
  0.2998569802867816  0.9568915217290515  0.5292148763387405   T   T   T
  0.7999068875915423  0.9574361917131134  0.9696368866769959   T   T   T
  0.7007906379632871  0.4573024690251088  0.4705712246976148   F   F   F
  0.7997061960456335  0.5420943230104669  0.9703299091641426   F   F   F
  0.7006463715416018  0.0424961156835764  0.4703034841437130   F   F   F
  0.2975035005340349  0.9966002239339344  0.1468324983909091   T   T   T
  0.2042064118233426  0.4967531505819451  0.6471177006098614   F   F   F
  0.2967511056388261  0.5034965039781341  0.1468168041277522   F   F   F
  0.2042827302375514  0.0033047164172473  0.6469643854882179   F   F   F
  0.7035696129939879  0.0031083667215270  0.8524919066641203   F   F   F
  0.7966007751528963  0.5038041185014350  0.3537092038256660   F   F   F
  0.7037483457962779  0.4970038740395566  0.8526549442081190   F   F   F
  0.7966973917064158  0.9960657679579957  0.3536955603356733   T   T   T
  0.1093130803579001  0.1272507135728205  0.0964942939304407   F   F   F
  0.3884104901427919  0.6261215424964873  0.6024224242203757   T   T   T
  0.1096158921303783  0.3727427104493160  0.0968435532563490   F   F   F
  0.3906465848982023  0.8730629369187279  0.6010267588357687   T   T   T
  0.8912640644082362  0.8726402187715344  0.9022732681344430   T   T   T
  0.6094187858421947  0.3723842463894300  0.4038544667847717   F   F   F
  0.8905143584268636  0.6272618242744763  0.9025356108436466   T   T   T
  0.6094040145362243  0.1276313299060661  0.4037602340758539   F   F   F
  0.0831048445439535  0.0475110882966447  0.9435685677105141   F   F   F
  0.4176872342913072  0.5499815392494369  0.4438435377828895   F   F   F
  0.0831855943499420  0.4523524428498575  0.9438998779490007   F   F   F
  0.4170734827074676  0.9498735703021670  0.4440065532463520   T   T   T
  0.9176334154256243  0.9511812746920687  0.0563334612771740   T   T   T
  0.5827905525617041  0.4530925301645041  0.5556379329753369   F   F   F
  0.9173414301896443  0.5488457317787905  0.0565852459470406   F   F   F
  0.5826187130355294  0.0467911394123277  0.5553537390913021   F   F   F
  0.1296231336961711  0.0799626583920841  0.7634419967380808   F   F   F
  0.3713806671913886  0.5807278877566375  0.2623251646573337   F   F   F
  0.1296319964797519  0.4200408348452100  0.7636760827530864   F   F   F
  0.3723668889796123  0.9177211222197649  0.2617045602331660   T   T   T
  0.8715014779795026  0.9194249965550203  0.2370873035704975   T   T   T
  0.6292994865534709  0.4207914948357825  0.7356747585106973   F   F   F
  0.8713627860823721  0.5804791781420562  0.2374903585859940   F   F   F
  0.6292492641131560  0.0793041317202778  0.7352596858642855   F   F   F
  0.0749938005775947  0.9607930666617375  0.7920602410024242   T   T   T
  0.4241132447671419  0.4613749630987130  0.2948145086315250   F   F   F
  0.0748028782093328  0.5391838163669433  0.7923198347491152   F   F   F
  0.4241964564574658  0.0386461512651266  0.2945781789805935   F   F   F
  0.9248078329829639  0.0391350116614007  0.2067121609451448   F   F   F
  0.5730252421818633  0.5395397631230381  0.7075290936903684   F   F   F
  0.9246679979530725  0.4608035351380835  0.2067757306297295   F   F   F
  0.5730500924302976  0.9605503709071642  0.7071848172796193   T   T   T
  0.2161824943307238  0.1373904132442618  0.6463271928850673   F   F   F
  0.2823743501494507  0.6372485082219684  0.1479707628226201   T   T   T
  0.2161519669650431  0.3626745022055431  0.6464341395308963   F   F   F
  0.2848827692831982  0.8618590158747632  0.1486052421829565   T   T   T
  0.7845309843533719  0.8618797531619579  0.3529613516901737   T   T   T
  0.7150252531541881  0.3628169816001332  0.8534948119233050   F   F   F
  0.7837824943854600  0.6378046359318190  0.3531716020273334   T   T   T
  0.7148263329004010  0.1372887141710919  0.8532629695442253   F   F   F
  0.4975897366797490  0.8520128931281615  0.7156954979642582   T   T   T
  0.0036583601130502  0.3545748255265906  0.2132403936128568   F   F   F
  0.4965155594091311  0.6476443917024916  0.7155360685627374   T   T   T
  0.0035387125346560  0.1455500017534490  0.2131491524185094   F   F   F
  0.5037286144630144  0.1445783224899984  0.2864472423826570   F   F   F
  0.9970325039959821  0.6463307450840385  0.7873910802543964   T   T   T
  0.5037709588734742  0.3555117659977185  0.2864958544944045   F   F   F
  0.9981817490401048  0.8527603803493232  0.7880987096035973   T   T   T
  0.3809025752377287  0.8352425533402756  0.7922562536427353   T   T   T
  0.1210267259957902  0.3338110969342551  0.2872205488986879   F   F   F
  0.3797607968168757  0.6662000759408465  0.7916181618031831   T   T   T
  0.1209587779883066  0.1660554549767994  0.2869692616749120   F   F   F
  0.6210866404315709  0.1658883060050513  0.2130437015299549   F   F   F
  0.8802291270497188  0.6651017417013048  0.7111449950536797   T   T   T
  0.6211112592748620  0.3341539537106328  0.2131484045398651   F   F   F
  0.8819191650299912  0.8355728200632094  0.7105622445514145   T   T   T
  0.4220888562709063  0.7500827519854144  0.6521642098666743   T   T   T
  0.0746192216383790  0.2500231437008722  0.1491576642778156   F   F   F
  0.5737534675664193  0.2500035087313037  0.3499369039544362   F   F   F
  0.9241922351915121  0.7498525352989901  0.8495938205994966   T   T   T
  0.3161138106008064  0.8669810335059963  0.9572400372388823   T   T   T
  0.1831380981117121  0.3656192441806354  0.4546788035509906   F   F   F
  0.3158206035870934  0.6333816220046903  0.9564484590725690   T   T   T
  0.1830711348579541  0.1345151488538150  0.4545913017498577   F   F   F
  0.6830517766183419  0.1344874585121119  0.0452735814838547   F   F   F
  0.8168986730203088  0.6343956154777577  0.5446430766594204   T   T   T
  0.6830852582452138  0.3655256004795930  0.0454291402414313   F   F   F
  0.8178105428491955  0.8653101593629856  0.5443528184683528   T   T   T
  0.2503346442214225  0.8425892779801961  0.7897659289975804   T   T   T
  0.2513283550130581  0.3439160578133738  0.2888598988823787   F   F   F
  0.2492310642147038  0.6564502487026628  0.7894514044598012   T   T   T
  0.2512495747145280  0.1561533887832525  0.2887656661734610   F   F   F
  0.7514064873928774  0.1563512488612560  0.2107776292441130   F   F   F
  0.7499451262914560  0.6572420759851190  0.7116444679455297   T   T   T
  0.7514335681204969  0.3437020869911152  0.2109204740647712   F   F   F
  0.7516518305456770  0.8419147234379462  0.7119993209631259   T   T   T
  0.2976763534269548  0.7498518297850988  0.0476905817300502   T   T   T
  0.2037514555993241  0.2500402613666566  0.5473132958090687   F   F   F
  0.7036286982178837  0.2500226402401182  0.9524369126496453   F   F   F
  0.7909854354555422  0.7498454706214945  0.4546782191465712   T   T   T
  0.1958994255440127  0.8311064487124086  0.0099796977405293   T   T   T
  0.3039762437678917  0.3321511868142579  0.5063205716731360   F   F   F
  0.1958319048261634  0.6703202322791152  0.0078373327992955   T   T   T
  0.3039535944320590  0.1678850313723288  0.5061612735223449   F   F   F
  0.8037673204349289  0.1675497265073247  0.9919473413167594   F   F   F
  0.6946780853103171  0.6627694796159986  0.4948990161536195   T   T   T
  0.8038195123827094  0.3323998964288393  0.9923100624582233   F   F   F
  0.6953251067885736  0.8386978962397441  0.4941071635032233   T   T   T
  0.0914602326470983  0.7501111340562119  0.0213852047436883   T   T   T
  0.4070686348029966  0.2499808529971830  0.5234881259046986   F   F   F
  0.9068306612349559  0.2499858876047654  0.9771430835945267   F   F   F
  0.5971162349553523  0.7504228484367491  0.4784560304796215   T   T   T
  0.0825592247008230  0.8708326083912112  0.9363891693865138   T   T   T
  0.4196729901911596  0.3690835576582501  0.4362495780500453   F   F   F
  0.0817545667001101  0.6300222332122781  0.9356425574938558   T   T   T
  0.4196316305344325  0.1308484441513755  0.4362278895694232   F   F   F
  0.9187870486676957  0.1307482554604817  0.0643945947288316   F   F   F
  0.5786081607320768  0.6306465173977036  0.5642495551592558   T   T   T
  0.9189815375296959  0.3691963328680998  0.0643975862434019   F   F   F
  0.5783443650070498  0.8697934810972033  0.5631030889237539   T   T   T
  0.1236738037078043  0.8406060203634078  0.7503099465201555   T   T   T
  0.3782192894807821  0.3406284590619109  0.2495820604729886   F   F   F
  0.1225109442913465  0.6597252313537085  0.7491155436480148   T   T   T
  0.3781400168053892  0.1593483507552023  0.2495850519875589   F   F   F
  0.8780773294015773  0.1597430639896800  0.2513021813500345   F   F   F
  0.6227547762067710  0.6589624644142188  0.7497930262537653   T   T   T
  0.8781526630620462  0.3400968045011865  0.2511877559177833   F   F   F
  0.6242775546431604  0.8413648562481859  0.7475152658318998   T   T   T
  0.2016290192909136  0.7498069715429121  0.6673530858634678   T   T   T
  0.2996635148001587  0.2500276748477006  0.1677080461187970   F   F   F
  0.7990848164409670  0.2499823633794591  0.3330221327039311   F   F   F
  0.7000827246867590  0.7499249084222473  0.8330131202301153   T   T   T
  0.4243121650209360  0.0706249717085541  0.6882719665325183   F   F   F
  0.0760515459410556  0.5707140532747630  0.1887832662558253   F   F   F
  0.4243643569687094  0.4293780180679789  0.6883258137947550   F   F   F
  0.0761055300265921  0.9292651851474383  0.1888448697156721   T   T   T
  0.5767273700958835  0.9293860186452175  0.3101020234793188   T   T   T
  0.9246231916582772  0.4294308814476011  0.8116016419021648   F   F   F
  0.5761242621753482  0.5706873698545749  0.3109170836766069   F   F   F
  0.9246202373970860  0.0705565010454308  0.8113907401250628   F   F   F
  0.3223817833891616  0.0318318099020161  0.8430147885102386   F   F   F
  0.1780454441885198  0.5317164864003701  0.3432882628253324   F   F   F
  0.3224147726391706  0.4682210224895869  0.8430424600200013   F   F   F
  0.1781912111504509  0.9683700895372722  0.3436657786742724   T   T   T
  0.6788091268679468  0.9681271748113851  0.1565583146202926   T   T   T
  0.8222944771420586  0.4680599150469433  0.6571624586531755   F   F   F
  0.6784012771206562  0.5319541198782645  0.1569513076081250   F   F   F
  0.8222309605263689  0.0319692546890238  0.6570772004879615   F   F   F
  0.2779122743756304  0.0511264400017382  0.0613110910870631   F   F   F
  0.2226567577394079  0.5510579383506027  0.5612545015782118   F   F   F
  0.2780422618682081  0.4489807661517631  0.0614569274222916   F   F   F
  0.2229287667261061  0.9486375859004754  0.5618326048781767   T   T   T
  0.7228717319043093  0.9488369040724454  0.9379391739790489   T   T   T
  0.7778141358374810  0.4491287836146896  0.4387961048267215   F   F   F
  0.7227334129886245  0.5509909780697555  0.9386602401817896   F   F   F
  0.7777077824344616  0.0507976801265926  0.4386756963653227   F   F   F
  0.1224575731678712  0.0532731966749793  0.0483847566353859   F   F   F
  0.3779770400628024  0.5535712144558644  0.5484126774130971   F   F   F
  0.1226107023731373  0.4467222411901872  0.0486674547621320   F   F   F
  0.3780108105649695  0.9459708695929674  0.5497306520109302   T   T   T
  0.8783262109918035  0.9463424254911537  0.9512109531081917   T   T   T
  0.6224155655924193  0.4466920335446929  0.4511189012141514   F   F   F
  0.8780394163829115  0.5534297419827894  0.9515768522111259   F   F   F
  0.6222658830252144  0.0532505409408586  0.4508429339951832   F   F   F
  0.0728412487759016  0.0397064396220301  0.8238017861922771   F   F   F
  0.4277440317757097  0.5407556208542417  0.3241851986677702   F   F   F
  0.0728648828654599  0.4602341210204841  0.8241697424842371   F   F   F
  0.4285231083382888  0.9599905325739637  0.3253559627026629   T   T   T
  0.9276238450155257  0.9600584769981761  0.1760019578446314   T   T   T
  0.5722871692600009  0.4606056750600871  0.6753224478429303   F   F   F
  0.9275543111405185  0.5399425317296505  0.1762338626398119   F   F   F
  0.5722005109316157  0.0394245015974022  0.6750906054638506   F   F   F
  0.2016627929345134  0.0714697788609229  0.7134552840511148   F   F   F
  0.2988993459044025  0.5712900123822138  0.2141872079738718   F   F   F
  0.2016337426994284  0.4285870812167474  0.7135973809931357   F   F   F
  0.2985717018141039  0.9290027535546916  0.2136147430474927   T   T   T
  0.7993287769802092  0.9280640042231154  0.2866178529197019   T   T   T
  0.7012002955156547  0.4288186731655514  0.7861857341258442   F   F   F
  0.7990675832506611  0.5717380924570676  0.2865968181111000   F   F   F
  0.7010836021984517  0.0712663807145830  0.7859516481108386   F   F   F
  0.4235152862625406  0.8276454292113785  0.6897838217591643   T   T   T
  0.0769156673405718  0.3279885732649248  0.1860146195224246   F   F   F
  0.4224577346801420  0.6717581025928706  0.6885533882060928   T   T   T
  0.0768112834450179  0.1720159268938914  0.1858269019832335   F   F   F
  0.5767131449068685  0.1718669025094428  0.3139572103571240   F   F   F
  0.9232243862884739  0.6717993829328693  0.8132308520408410   T   T   T
  0.5767215153135865  0.3281511910898445  0.3140417206436936   F   F   F
  0.9241039127587006  0.8278335033712029  0.8133025005183234   T   T   T
  0.3172001821584752  0.8743426025634963  0.8360375568050114   T   T   T
  0.1833074757535513  0.3740496945777707  0.3339203349532127   F   F   F
  0.3168131137263444  0.6257646657512246  0.8354993151339601   T   T   T
  0.1832641465893587  0.1259628609531802  0.3338575131472652   F   F   F
  0.6834028413236695  0.1259064733482518  0.1659796985766917   F   F   F
  0.8170372815526251  0.6257864508640779  0.6653405394007383   T   T   T
  0.6834284449206933  0.3741453521218361  0.1661307700624093   F   F   F
  0.8182505296197268  0.8740312971187829  0.6650585495000078   T   T   T
  0.2728629223504365  0.8268400896802502  0.0403216645939366   T   T   T
  0.2271236006661397  0.3276059430886491  0.5390133386380001   F   F   F
  0.2727516963915367  0.6723233650107795  0.0406752191142585   T   T   T
  0.2271201540280785  0.1724801177130075  0.5389176101718007   F   F   F
  0.7267472691988033  0.1723613009740603  0.9604302395774198   F   F   F
  0.7708265301026000  0.6712175987686310  0.4614521321835873   T   T   T
  0.7268216181055394  0.3276502476353755  0.9606403934758703   F   F   F
  0.7716284600620009  0.8284577476285214  0.4613045539696979   T   T   T
  0.1167056884212580  0.8275804486042163  0.0252184935722281   T   T   T
  0.3827580194299287  0.3278380384982071  0.5246488335573787   F   F   F
  0.1168844588455091  0.6723983770615245  0.0244633920745609   T   T   T
  0.3827274920642481  0.1721327297898085  0.5246189184116972   F   F   F
  0.8826746521977498  0.1720728179595739  0.9752651603239784   F   F   F
  0.6158277545327868  0.6712640722667701  0.4756933922515257   T   T   T
  0.8827061643171632  0.3279195991410475  0.9753863166640144   F   F   F
  0.6168048806869214  0.8290113475629276  0.4754727235568767   T   T   T
  0.0702182215859458  0.8811019242506752  0.8170495753537410   T   T   T
  0.4310360635005921  0.3815537771796969  0.3171558873097879   F   F   F
  0.0694834343241655  0.6189397701854805  0.8164364322239079   T   T   T
  0.4310158760490950  0.1184562610474558  0.3171102667126107   F   F   F
  0.9308108917310562  0.1189823775398438  0.1834598660806890   F   F   F
  0.5681947244386490  0.6193595222756451  0.6834646858918725   T   T   T
  0.9308749007236159  0.3809924184342321  0.1834912769836592   F   F   F
  0.5690168564020734  0.8807127905441778  0.6827913949987311   T   T   T
  0.1961074552315307  0.8273528720089554  0.7032617282507407   T   T   T
  0.3055346165482149  0.3279009710929870  0.2027790671658423   F   F   F
  0.1954160066744168  0.6719689148524087  0.7027084598432315   T   T   T
  0.3054784855855104  0.1721382678581449  0.2027154974812575   F   F   F
  0.8051755182711773  0.1721936485415583  0.2975943735445625   F   F   F
  0.6951238927051634  0.6720347053263805  0.7973013302743361   T   T   T
  0.8052597147152341  0.3277660436097705  0.2976063396028366   F   F   F
  0.6960993266867899  0.8275768282600262  0.7966281430190488   T   T   T
  0.4147688839070251  0.7995357864306347  0.2440690508155924   T   T   T
  0.4070101403050371  0.7651912236539490  0.4064073205165262   T   T   T
  0.4725614221203822  0.7330631656579726  0.2092481519551854   T   T   T
  0.4583029822501203  0.6958225351015631  0.4255286599464926   T   T   T
  0.4953826865576509  0.6936787275818892  0.2549711587332060   T   T   T
  0.4882945669585323  0.7348382738282446  0.1299028420062911   T   T   T
 
  0.00000000E+00  0.00000000E+00  0.00000000E+00
  0.00000000E+00  0.00000000E+00  0.00000000E+00
  0.00000000E+00  0.00000000E+00  0.00000000E+00
  0.00000000E+00  0.00000000E+00  0.00000000E+00
  0.00000000E+00  0.00000000E+00  0.00000000E+00
  0.00000000E+00  0.00000000E+00  0.00000000E+00
  0.00000000E+00  0.00000000E+00  0.00000000E+00
  0.00000000E+00  0.00000000E+00  0.00000000E+00
  0.00000000E+00  0.00000000E+00  0.00000000E+00
  0.00000000E+00  0.00000000E+00  0.00000000E+00
  0.00000000E+00  0.00000000E+00  0.00000000E+00
  0.00000000E+00  0.00000000E+00  0.00000000E+00
  0.00000000E+00  0.00000000E+00  0.00000000E+00
  0.00000000E+00  0.00000000E+00  0.00000000E+00
  0.00000000E+00  0.00000000E+00  0.00000000E+00
  0.00000000E+00  0.00000000E+00  0.00000000E+00
  0.00000000E+00  0.00000000E+00  0.00000000E+00
  0.00000000E+00  0.00000000E+00  0.00000000E+00
  0.00000000E+00  0.00000000E+00  0.00000000E+00
  0.00000000E+00  0.00000000E+00  0.00000000E+00
  0.00000000E+00  0.00000000E+00  0.00000000E+00
  0.00000000E+00  0.00000000E+00  0.00000000E+00
  0.00000000E+00  0.00000000E+00  0.00000000E+00
  0.00000000E+00  0.00000000E+00  0.00000000E+00
  0.00000000E+00  0.00000000E+00  0.00000000E+00
  0.00000000E+00  0.00000000E+00  0.00000000E+00
  0.00000000E+00  0.00000000E+00  0.00000000E+00
  0.00000000E+00  0.00000000E+00  0.00000000E+00
  0.00000000E+00  0.00000000E+00  0.00000000E+00
  0.00000000E+00  0.00000000E+00  0.00000000E+00
  0.00000000E+00  0.00000000E+00  0.00000000E+00
  0.00000000E+00  0.00000000E+00  0.00000000E+00
  0.00000000E+00  0.00000000E+00  0.00000000E+00
  0.00000000E+00  0.00000000E+00  0.00000000E+00
  0.00000000E+00  0.00000000E+00  0.00000000E+00
  0.00000000E+00  0.00000000E+00  0.00000000E+00
  0.00000000E+00  0.00000000E+00  0.00000000E+00
  0.00000000E+00  0.00000000E+00  0.00000000E+00
  0.00000000E+00  0.00000000E+00  0.00000000E+00
  0.00000000E+00  0.00000000E+00  0.00000000E+00
  0.00000000E+00  0.00000000E+00  0.00000000E+00
  0.00000000E+00  0.00000000E+00  0.00000000E+00
  0.00000000E+00  0.00000000E+00  0.00000000E+00
  0.00000000E+00  0.00000000E+00  0.00000000E+00
  0.00000000E+00  0.00000000E+00  0.00000000E+00
  0.00000000E+00  0.00000000E+00  0.00000000E+00
  0.00000000E+00  0.00000000E+00  0.00000000E+00
  0.00000000E+00  0.00000000E+00  0.00000000E+00
  0.00000000E+00  0.00000000E+00  0.00000000E+00
  0.00000000E+00  0.00000000E+00  0.00000000E+00
  0.00000000E+00  0.00000000E+00  0.00000000E+00
  0.00000000E+00  0.00000000E+00  0.00000000E+00
  0.00000000E+00  0.00000000E+00  0.00000000E+00
  0.00000000E+00  0.00000000E+00  0.00000000E+00
  0.00000000E+00  0.00000000E+00  0.00000000E+00
  0.00000000E+00  0.00000000E+00  0.00000000E+00
  0.00000000E+00  0.00000000E+00  0.00000000E+00
  0.00000000E+00  0.00000000E+00  0.00000000E+00
  0.00000000E+00  0.00000000E+00  0.00000000E+00
  0.00000000E+00  0.00000000E+00  0.00000000E+00
  0.00000000E+00  0.00000000E+00  0.00000000E+00
  0.00000000E+00  0.00000000E+00  0.00000000E+00
  0.00000000E+00  0.00000000E+00  0.00000000E+00
  0.00000000E+00  0.00000000E+00  0.00000000E+00
  0.00000000E+00  0.00000000E+00  0.00000000E+00
  0.00000000E+00  0.00000000E+00  0.00000000E+00
  0.00000000E+00  0.00000000E+00  0.00000000E+00
  0.00000000E+00  0.00000000E+00  0.00000000E+00
  0.00000000E+00  0.00000000E+00  0.00000000E+00
  0.00000000E+00  0.00000000E+00  0.00000000E+00
  0.00000000E+00  0.00000000E+00  0.00000000E+00
  0.00000000E+00  0.00000000E+00  0.00000000E+00
  0.00000000E+00  0.00000000E+00  0.00000000E+00
  0.00000000E+00  0.00000000E+00  0.00000000E+00
  0.00000000E+00  0.00000000E+00  0.00000000E+00
  0.00000000E+00  0.00000000E+00  0.00000000E+00
  0.00000000E+00  0.00000000E+00  0.00000000E+00
  0.00000000E+00  0.00000000E+00  0.00000000E+00
  0.00000000E+00  0.00000000E+00  0.00000000E+00
  0.00000000E+00  0.00000000E+00  0.00000000E+00
  0.00000000E+00  0.00000000E+00  0.00000000E+00
  0.00000000E+00  0.00000000E+00  0.00000000E+00
  0.00000000E+00  0.00000000E+00  0.00000000E+00
  0.00000000E+00  0.00000000E+00  0.00000000E+00
  0.00000000E+00  0.00000000E+00  0.00000000E+00
  0.00000000E+00  0.00000000E+00  0.00000000E+00
  0.00000000E+00  0.00000000E+00  0.00000000E+00
  0.00000000E+00  0.00000000E+00  0.00000000E+00
  0.00000000E+00  0.00000000E+00  0.00000000E+00
  0.00000000E+00  0.00000000E+00  0.00000000E+00
  0.00000000E+00  0.00000000E+00  0.00000000E+00
  0.00000000E+00  0.00000000E+00  0.00000000E+00
  0.00000000E+00  0.00000000E+00  0.00000000E+00
  0.00000000E+00  0.00000000E+00  0.00000000E+00
  0.00000000E+00  0.00000000E+00  0.00000000E+00
  0.00000000E+00  0.00000000E+00  0.00000000E+00
  0.00000000E+00  0.00000000E+00  0.00000000E+00
  0.00000000E+00  0.00000000E+00  0.00000000E+00
  0.00000000E+00  0.00000000E+00  0.00000000E+00
  0.00000000E+00  0.00000000E+00  0.00000000E+00
  0.00000000E+00  0.00000000E+00  0.00000000E+00
  0.00000000E+00  0.00000000E+00  0.00000000E+00
  0.00000000E+00  0.00000000E+00  0.00000000E+00
  0.00000000E+00  0.00000000E+00  0.00000000E+00
  0.00000000E+00  0.00000000E+00  0.00000000E+00
  0.00000000E+00  0.00000000E+00  0.00000000E+00
  0.00000000E+00  0.00000000E+00  0.00000000E+00
  0.00000000E+00  0.00000000E+00  0.00000000E+00
  0.00000000E+00  0.00000000E+00  0.00000000E+00
  0.00000000E+00  0.00000000E+00  0.00000000E+00
  0.00000000E+00  0.00000000E+00  0.00000000E+00
  0.00000000E+00  0.00000000E+00  0.00000000E+00
  0.00000000E+00  0.00000000E+00  0.00000000E+00
  0.00000000E+00  0.00000000E+00  0.00000000E+00
  0.00000000E+00  0.00000000E+00  0.00000000E+00
  0.00000000E+00  0.00000000E+00  0.00000000E+00
  0.00000000E+00  0.00000000E+00  0.00000000E+00
  0.00000000E+00  0.00000000E+00  0.00000000E+00
  0.00000000E+00  0.00000000E+00  0.00000000E+00
  0.00000000E+00  0.00000000E+00  0.00000000E+00
  0.00000000E+00  0.00000000E+00  0.00000000E+00
  0.00000000E+00  0.00000000E+00  0.00000000E+00
  0.00000000E+00  0.00000000E+00  0.00000000E+00
  0.00000000E+00  0.00000000E+00  0.00000000E+00
  0.00000000E+00  0.00000000E+00  0.00000000E+00
  0.00000000E+00  0.00000000E+00  0.00000000E+00
  0.00000000E+00  0.00000000E+00  0.00000000E+00
  0.00000000E+00  0.00000000E+00  0.00000000E+00
  0.00000000E+00  0.00000000E+00  0.00000000E+00
  0.00000000E+00  0.00000000E+00  0.00000000E+00
  0.00000000E+00  0.00000000E+00  0.00000000E+00
  0.00000000E+00  0.00000000E+00  0.00000000E+00
  0.00000000E+00  0.00000000E+00  0.00000000E+00
  0.00000000E+00  0.00000000E+00  0.00000000E+00
  0.00000000E+00  0.00000000E+00  0.00000000E+00
  0.00000000E+00  0.00000000E+00  0.00000000E+00
  0.00000000E+00  0.00000000E+00  0.00000000E+00
  0.00000000E+00  0.00000000E+00  0.00000000E+00
  0.00000000E+00  0.00000000E+00  0.00000000E+00
  0.00000000E+00  0.00000000E+00  0.00000000E+00
  0.00000000E+00  0.00000000E+00  0.00000000E+00
  0.00000000E+00  0.00000000E+00  0.00000000E+00
  0.00000000E+00  0.00000000E+00  0.00000000E+00
  0.00000000E+00  0.00000000E+00  0.00000000E+00
  0.00000000E+00  0.00000000E+00  0.00000000E+00
  0.00000000E+00  0.00000000E+00  0.00000000E+00
  0.00000000E+00  0.00000000E+00  0.00000000E+00
  0.00000000E+00  0.00000000E+00  0.00000000E+00
  0.00000000E+00  0.00000000E+00  0.00000000E+00
  0.00000000E+00  0.00000000E+00  0.00000000E+00
  0.00000000E+00  0.00000000E+00  0.00000000E+00
  0.00000000E+00  0.00000000E+00  0.00000000E+00
  0.00000000E+00  0.00000000E+00  0.00000000E+00
  0.00000000E+00  0.00000000E+00  0.00000000E+00
  0.00000000E+00  0.00000000E+00  0.00000000E+00
  0.00000000E+00  0.00000000E+00  0.00000000E+00
  0.00000000E+00  0.00000000E+00  0.00000000E+00
  0.00000000E+00  0.00000000E+00  0.00000000E+00
  0.00000000E+00  0.00000000E+00  0.00000000E+00
  0.00000000E+00  0.00000000E+00  0.00000000E+00
  0.00000000E+00  0.00000000E+00  0.00000000E+00
  0.00000000E+00  0.00000000E+00  0.00000000E+00
  0.00000000E+00  0.00000000E+00  0.00000000E+00
  0.00000000E+00  0.00000000E+00  0.00000000E+00
  0.00000000E+00  0.00000000E+00  0.00000000E+00
  0.00000000E+00  0.00000000E+00  0.00000000E+00