 O Si Ru  C  O  H                       
   1.00000000000000     
    20.3096463179830877    0.0000000000000000    0.0000000000000000
     0.0000000000000000   19.8625212307842212    0.0000000000000000
     0.0000000000000000    0.0000000000000000   13.3711533343531652
   O    Si   Ru   C    O    H 
   192    96     2     1     1     3
Selective dynamics
Direct
  0.5029151419623901  0.0735660596726220  0.7069316305773725   F   F   F
  0.9975465120921569  0.5722056013321435  0.2087406600889281   F   F   F
  0.5029625376940245  0.4265088223227380  0.7071140439527213   F   F   F
  0.9974808621482887  0.9279921993238532  0.2091383860335228   T   T   T
  0.4970632590092686  0.9278483367294554  0.2897609265468774   T   T   T
  0.0032184386695491  0.4269330484855089  0.7921409749159594   F   F   F
  0.4977203592960961  0.5720242044357065  0.2903984015411680   F   F   F
  0.0031941412613889  0.0729668753257329  0.7917158063303020   F   F   F
  0.3878579723645430  0.0669556667519231  0.7965548156122182   F   F   F
  0.1133759987999525  0.5681642766849038  0.2964373645987877   F   F   F
  0.3878584358486918  0.4330437684886519  0.7965742164748164   F   F   F
  0.1130707763181773  0.9319803503077944  0.2970072197645458   T   T   T
  0.6127281280473111  0.9319157228121815  0.2032419326139798   T   T   T
  0.8876973671888919  0.4327342034956771  0.7036508835393036   F   F   F
  0.6135821534334056  0.5682784344751042  0.2033449439821382   F   F   F
  0.8876117469000917  0.0673661435016157  0.7035018781795443   F   F   F
  0.4009161058478412  0.1389419031021148  0.6318180153029829   F   F   F
  0.0976709948362762  0.6395755895308003  0.1318588437991093   T   T   T
  0.4010424696537882  0.3610528181545121  0.6318133081225312   F   F   F
  0.0974333910079889  0.8604485573841600  0.1327159556959039   T   T   T
  0.5954231941616919  0.8596403915598186  0.3682452044864155   T   T   T
  0.9019278058779037  0.3610410398314983  0.8685731531220142   F   F   F
  0.5960056584333585  0.6397406143786681  0.3685710532210245   T   T   T
  0.9020589687179950  0.1389418631131747  0.8685141393728202   F   F   F
  0.4059805669348791  0.0047442563955897  0.6216751015979938   F   F   F
  0.0951764573732916  0.5048736608876467  0.1227496371721131   F   F   F
  0.4060063268505516  0.4952757309538711  0.6217644002593659   F   F   F
  0.0954484870446312  0.9949397214431628  0.1226671863575705   T   T   T
  0.5947555626865172  0.9951155127736603  0.3765080238226416   T   T   T
  0.9063174878259801  0.4953848205285425  0.8779651251188270   F   F   F
  0.5950752590078494  0.5043549968709016  0.3761727772273389   F   F   F
  0.9063218528932850  0.0045785558899212  0.8776992153014049   F   F   F
  0.3240114434950669  0.0382407076679172  0.9638230470655600   F   F   F
  0.1763485455368254  0.5378781522500660  0.4641542393044347   F   F   F
  0.3240639192643968  0.4618354887910741  0.9638665486159397   F   F   F
  0.1763323993274429  0.9614892226481176  0.4645420626998071   T   T   T
  0.6775828009264769  0.9613875086549610  0.0368134983675359   T   T   T
  0.8239264782183469  0.4615726959520288  0.5363529546552854   F   F   F
  0.6766273407468262  0.5380862158563389  0.0360413412402991   F   F   F
  0.8238113343158346  0.0383815205381524  0.5362542402135873   F   F   F
  0.3204990853153107  0.9536534831364332  0.8075318916231575   T   T   T
  0.1776758631529702  0.4534601678782408  0.3068976961336460   F   F   F
  0.3217291042216033  0.5466230856040681  0.8071625387420625   F   F   F
  0.1777392319065001  0.0465284403162727  0.3069405612850815   F   F   F
  0.6782953929680886  0.0464276494116262  0.1929820249193881   F   F   F
  0.8214903320832505  0.5463853187552132  0.6930224919608605   F   F   F
  0.6783411531563246  0.4536225664016982  0.1930928964972622   F   F   F
  0.8218235941472848  0.9531287284664328  0.6911956079367081   T   T   T
  0.2563457342386215  0.0684226129951071  0.8017762481607349   F   F   F
  0.2448952522016867  0.5671912581414134  0.3029801725596926   F   F   F
  0.2563604704749665  0.4316428390570621  0.8018556833268136   F   F   F
  0.2442862924033131  0.9320818174691941  0.3031266255818084   T   T   T
  0.7436505876511048  0.9308643517534845  0.2008737781405207   T   T   T
  0.7562410131176875  0.4314383528184749  0.6983979119208144   F   F   F
  0.7450790913829763  0.5677876932779427  0.1974180494790900   F   F   F
  0.7561874466482195  0.0686029683221889  0.6982838657223311   F   F   F
  0.2923457530791964  0.1261305060343005  0.1042687178754136   F   F   F
  0.2084148351500098  0.6261803191814527  0.6042808176787852   T   T   T
  0.2924222850649301  0.3739550916486252  0.1043750301760937   F   F   F
  0.2089366956698915  0.8738389485420465  0.6051915574789131   T   T   T
  0.7094058737109449  0.8738702740696150  0.8950310264197253   T   T   T
  0.7920626114484861  0.3741440791997874  0.3955590558159940   F   F   F
  0.7091364428167133  0.6261682742819016  0.8954255045081161   T   T   T
  0.7918328172678528  0.1258395964698522  0.3955348022627305   F   F   F
  0.2009180106485928  0.0428348962614322  0.0293984412057924   F   F   F
  0.2996968197579477  0.5426935160259490  0.5294112209858000   F   F   F
  0.2010372834083469  0.4573071122565651  0.0296181964629270   F   F   F
  0.2997633302733401  0.9570552938903372  0.5289459460139071   T   T   T
  0.8000913996338127  0.9576727040446810  0.9699406203825994   T   T   T
  0.7007908648720971  0.4573025797676209  0.4705712418615562   F   F   F
  0.7997060817570443  0.5420944581861136  0.9703302267615257   F   F   F
  0.7006462591275380  0.0424959606184885  0.4703037048025678   F   F   F
  0.2957845484438571  0.9957870783649309  0.1459896672197950   T   T   T
  0.2042062705839172  0.4967531181442908  0.6471179485467573   F   F   F
  0.2967512456497943  0.5034965594674716  0.1468170404423290   F   F   F
  0.2042827147657746  0.0033044922153636  0.6469642495983621   F   F   F
  0.7035695737600207  0.0031082455789999  0.8524917251822970   F   F   F
  0.7966009577419371  0.5038039927924629  0.3537093559489008   F   F   F
  0.7037483821235924  0.4970039567455018  0.8526551329040757   F   F   F
  0.7967942699453984  0.9950037230176433  0.3549213303138695   T   T   T
  0.1093131791865716  0.1272507473097590  0.0964945470806668   F   F   F
  0.3893777884972708  0.6265556470525494  0.6010877083274015   T   T   T
  0.1096159065423521  0.3727429065902896  0.0968433397711834   F   F   F
  0.3894979793653049  0.8730256909912267  0.6019514287303028   T   T   T
  0.8916787601375530  0.8725671575227100  0.9041127828495066   T   T   T
  0.6094185792695015  0.3723840888363128  0.4038542259655458   F   F   F
  0.8909498770206092  0.6273448039578928  0.9034550335051555   T   T   T
  0.6094041022901209  0.1276315479534134  0.4037605891893747   F   F   F
  0.0831048349475765  0.0475109685477975  0.9435687042287597   F   F   F
  0.4176871806418063  0.5499813561623768  0.4438436836473443   F   F   F
  0.0831856777148303  0.4523523729842580  0.9438997465468049   F   F   F
  0.4175018627761016  0.9497469469457297  0.4443316592232705   T   T   T
  0.9185093251867670  0.9519879495684708  0.0558014221345223   T   T   T
  0.5827906879946028  0.4530925389524398  0.5556375829759830   F   F   F
  0.9173413997613409  0.5488456328287370  0.0565855780411937   F   F   F
  0.5826187119468287  0.0467912904197689  0.5553540539617146   F   F   F
  0.1296231040844802  0.0799627804154994  0.7634423203244225   F   F   F
  0.3713805715389924  0.5807279038530382  0.2623249302738841   F   F   F
  0.1296318253701898  0.4200410798835748  0.7636759413020187   F   F   F
  0.3707786913130480  0.9200566343226658  0.2625718193354509   T   T   T
  0.8709736608670393  0.9198299104477393  0.2347494915225878   T   T   T
  0.6292993944101113  0.4207916246772925  0.7356744224965155   F   F   F
  0.8713626048482652  0.5804791718471378  0.2374900436238292   F   F   F
  0.6292492851724560  0.0793042870953116  0.7352598947508895   F   F   F
  0.0750444526620167  0.9607730109124695  0.7920123267157955   T   T   T
  0.4241131313273669  0.4613752091790673  0.2948144036777691   F   F   F
  0.0748028995871124  0.5391836990524368  0.7923195950701611   F   F   F
  0.4241964469789892  0.0386462131336458  0.2945780170194396   F   F   F
  0.9248077689555814  0.0391348004589247  0.2067119060627078   F   F   F
  0.5730250382433582  0.5395395133105296  0.7075292341394857   F   F   F
  0.9246677977408950  0.4608033835361240  0.2067758124953869   F   F   F
  0.5733288170406123  0.9601446028477612  0.7051648431784114   T   T   T
  0.2161824121332003  0.1373904738735874  0.6463271447778780   F   F   F
  0.2825165691046823  0.6381995362443176  0.1489467991408317   T   T   T
  0.2161517510064428  0.3626744318723070  0.6464343906898762   F   F   F
  0.2829404832166978  0.8611081422115188  0.1500450913572388   T   T   T
  0.7894724817805853  0.8594250627887350  0.3527839989570751   T   T   T
  0.7150253360603145  0.3628167424777686  0.8534947758407938   F   F   F
  0.7867406784203933  0.6388482341605837  0.3526522761350025   T   T   T
  0.7148261493384283  0.1372886464544649  0.8532633160024901   F   F   F
  0.4967736249685999  0.8525003241146503  0.7161823390097553   T   T   T
  0.0036584267006603  0.3545747407892605  0.2132407109572441   F   F   F
  0.4961300286595963  0.6471283369239121  0.7165819999428834   T   T   T
  0.0035385368081577  0.1455500153788094  0.2131493366729131   F   F   F
  0.5037287630216625  0.1445781717231256  0.2864470147087275   F   F   F
  0.9970313616443514  0.6461186663736924  0.7868058160358338   T   T   T
  0.5037707510527198  0.3555116669135501  0.2864961434610791   F   F   F
  0.9976535277340712  0.8533273104786985  0.7873399587148739   T   T   T
  0.3809522960490634  0.8362167775174368  0.7941125314117748   T   T   T
  0.1210268688035399  0.3338110613837486  0.2872208120334179   F   F   F
  0.3798901396141844  0.6647701131797334  0.7927273327519840   T   T   T
  0.1209586482013023  0.1660553506375635  0.2869694551628612   F   F   F
  0.6210864063625010  0.1658884040414250  0.2130439895052163   F   F   F
  0.8798932797717786  0.6655339628685512  0.7131996344529555   T   T   T
  0.6211110157533284  0.3341538800550268  0.2131485949028544   F   F   F
  0.8805715436959474  0.8344613162215455  0.7137036406557230   T   T   T
  0.4196785977090759  0.7500656674970851  0.6569663343482610   T   T   T
  0.0746191832608716  0.2500230315661014  0.1491574075772419   F   F   F
  0.5737535633323603  0.2500033269389590  0.3499372146450668   F   F   F
  0.9256981069087575  0.7498646066740939  0.8515049101844933   T   T   T
  0.3150687736155431  0.8671104238993482  0.9579517286274415   T   T   T
  0.1831382099758727  0.3656193254218110  0.4546788161282862   F   F   F
  0.3150673142312002  0.6331203533293009  0.9570439460378003   T   T   T
  0.1830710617180671  0.1345150281137819  0.4545914900688217   F   F   F
  0.6830517762348904  0.1344874634880142  0.0452736917138168   F   F   F
  0.8200896837053744  0.6365927978373507  0.5450364628113020   T   T   T
  0.6830854472072687  0.3655253709567745  0.0454288807432022   F   F   F
  0.8206720928522635  0.8616878518591682  0.5451313959193040   T   T   T
  0.2501574197047136  0.8422444960616058  0.7900361081405495   T   T   T
  0.2513284304882717  0.3439160443049900  0.2888596437238746   F   F   F
  0.2490907987024561  0.6567183912122841  0.7896775327646363   T   T   T
  0.2512496259875334  0.1561531436267387  0.2887659973841181   F   F   F
  0.7514064122389215  0.1563514770940770  0.2107774734307739   F   F   F
  0.7495412977259170  0.6567449765014776  0.7103031891158077   T   T   T
  0.7514333991542230  0.3437018738677295  0.2109204239965408   F   F   F
  0.7500759174408111  0.8428351346637996  0.7102198560950709   T   T   T
  0.2963693193498381  0.7499219380170640  0.0493619768608504   T   T   T
  0.2037513614112356  0.2500402232570522  0.5473130572547689   F   F   F
  0.7036288451255430  0.2500227799147439  0.9524367183681051   F   F   F
  0.7777879832023291  0.7492806064837129  0.4592277061980495   T   T   T
  0.1950095223857602  0.8305358382340029  0.0093367580827881   T   T   T
  0.3039760542072045  0.3321511197779401  0.5063204852821102   F   F   F
  0.1949549479501997  0.6697643384817402  0.0083876800501137   T   T   T
  0.3039535270350342  0.1678850199576374  0.5061614664230731   F   F   F
  0.8037674365760594  0.1675499430433049  0.9919476301601620   F   F   F
  0.6961575333177837  0.6456253406379300  0.4941374759369541   T   T   T
  0.8038193000716305  0.3323998958156906  0.9923103515000236   F   F   F
  0.6968692031135091  0.8538377941204135  0.4916978320766945   T   T   T
  0.0906323414517865  0.7502206417416404  0.0218886529129088   T   T   T
  0.4070684857934594  0.2499810289984339  0.5234879823940233   F   F   F
  0.9068306617426174  0.2499858845960929  0.9771434341541791   F   F   F
  0.6179611111852039  0.7498092451886038  0.4774548485501782   T   T   T
  0.0813973476966519  0.8707120532457256  0.9364393504889316   T   T   T
  0.4196731292247478  0.3690835510139365  0.4362494260570955   F   F   F
  0.0811787314150908  0.6300124979214791  0.9356863155842752   T   T   T
  0.4196318579545562  0.1308483549065897  0.4362280688829117   F   F   F
  0.9187871414795694  0.1307480475178480  0.0643944961597001   F   F   F
  0.5777748755490985  0.6336382129195000  0.5652743670064621   T   T   T
  0.9189813415853791  0.3691962182345989  0.0643979391319860   F   F   F
  0.5782044543701425  0.8655028283236990  0.5644932352253994   T   T   T
  0.1234100939143290  0.8404755854070504  0.7507243044185705   T   T   T
  0.3782191667140111  0.3406282260943811  0.2495822814269246   F   F   F
  0.1225654357876927  0.6595970921175884  0.7492679621451562   T   T   T
  0.3781398319688947  0.1593484212036174  0.2495850342034558   F   F   F
  0.8780772199561611  0.1597428608575626  0.2513021010905376   F   F   F
  0.6225621812507810  0.6588341404503332  0.7509604951305071   T   T   T
  0.8781527669198397  0.3400969411418018  0.2511874583142415   F   F   F
  0.6231981222075467  0.8412455437663046  0.7504113334024203   T   T   T
  0.2012249841560562  0.7499797234568867  0.6669794385500490   T   T   T
  0.2996637301077030  0.2500277610362360  0.1677077677577756   F   F   F
  0.7990848778479602  0.2499825440223233  0.3330224582314472   F   F   F
  0.7010493265020380  0.7499228935422679  0.8321631935344227   T   T   T
  0.4243120677247703  0.0706248793323780  0.6882720414480872   F   F   F
  0.0760515629478533  0.5707141827737630  0.1887833199971851   F   F   F
  0.4243642501694112  0.4293781953153299  0.6883255931551702   F   F   F
  0.0758388483823338  0.9295112846055805  0.1892434290722189   T   T   T
  0.5755325832057815  0.9288801482092637  0.3111349453828943   T   T   T
  0.9246233627582825  0.4294307430317730  0.8116017276557059   F   F   F
  0.5761242863364586  0.5706873103235637  0.3109170475815333   F   F   F
  0.9246201416023538  0.0705567486414296  0.8113905219130189   F   F   F
  0.3223819734165474  0.0318316953936488  0.8430151480515420   F   F   F
  0.1780452314772205  0.5317164602638726  0.3432883448099062   F   F   F
  0.3224146420772769  0.4682209026483264  0.8430421287326908   F   F   F
  0.1777477192912560  0.9683980426921264  0.3438154989367807   T   T   T
  0.6782489671802169  0.9677967900835861  0.1578169201761581   T   T   T
  0.8222945580976031  0.4680597921700667  0.6571628257407198   F   F   F
  0.6784011481407290  0.5319538700143198  0.1569513425766544   F   F   F
  0.8222309627981090  0.0319692201244450  0.6570775164942972   F   F   F
  0.2779123087333701  0.0511264612777964  0.0613109493893447   F   F   F
  0.2226568316635706  0.5510577151876532  0.5612541371714030   F   F   F
  0.2780423512307522  0.4489808195105951  0.0614569707557564   F   F   F
  0.2229907622915731  0.9488001980721580  0.5617019002483378   T   T   T
  0.7229915967059449  0.9489349439847263  0.9383402570461626   T   T   T
  0.7778141510926559  0.4491288428941544  0.4387963766751781   F   F   F
  0.7227333495790305  0.5509907875996660  0.9386600761461779   F   F   F
  0.7777079553616204  0.0507975122443085  0.4386758489674847   F   F   F
  0.1224574189986996  0.0532732866075847  0.0483851064646856   F   F   F
  0.3779769887972222  0.5535711134250292  0.5484128788570217   F   F   F
  0.1226107360804676  0.4467220309073738  0.0486672413644982   F   F   F
  0.3780668532278287  0.9457206590375944  0.5493871209258596   T   T   T
  0.8784562314304495  0.9466170445980838  0.9515396407898679   T   T   T
  0.6224157232441314  0.4466922016762993  0.4511188640456680   F   F   F
  0.8780396312731398  0.5534298767382921  0.9515768464672476   F   F   F
  0.6222660347702487  0.0532503084769687  0.4508426119537319   F   F   F
  0.0728412340832634  0.0397062233897643  0.8238019586723624   F   F   F
  0.4277437962122690  0.5407555480855848  0.3241855554615896   F   F   F
  0.0728651157205249  0.4602342044834629  0.8241694721060924   F   F   F
  0.4274614987498025  0.9593547805346256  0.3249147174970407   T   T   T
  0.9276890423601799  0.9602976123750278  0.1755175760423417   T   T   T
  0.5722872311394767  0.4606056157916711  0.6753226260991951   F   F   F
  0.9275541845522710  0.5399426299954300  0.1762338123948481   F   F   F
  0.5722002755176163  0.0394245703525797  0.6750904917086089   F   F   F
  0.2016626826565684  0.0714697559756701  0.7134550092025691   F   F   F
  0.2988993987442186  0.5712898499085739  0.2141871586954238   F   F   F
  0.2016336523030233  0.4285870286521600  0.7135974393340589   F   F   F
  0.2985509377765878  0.9288520508331364  0.2144025717294940   T   T   T
  0.7996724339140211  0.9271142195895534  0.2873544270211966   T   T   T
  0.7012003299792298  0.4288186369106910  0.7861858612953654   F   F   F
  0.7990674709343182  0.5717379632341064  0.2865965737987679   F   F   F
  0.7010838455696202  0.0712665571672204  0.7859514996808130   F   F   F
  0.4226673604038010  0.8279931254362949  0.6905696596218813   T   T   T
  0.0769156502417161  0.3279886870119242  0.1860147788485307   F   F   F
  0.4222913840134854  0.6717862512311631  0.6895242279808492   T   T   T
  0.0768112818279434  0.1720160537428654  0.1858265876985072   F   F   F
  0.5767129546629590  0.1718671486741741  0.3139569590465925   F   F   F
  0.9235622714440017  0.6719740944468439  0.8143954964953644   T   T   T
  0.5767212789286447  0.3281510196691713  0.3140415784961021   F   F   F
  0.9240890333311652  0.8277378035936008  0.8148410242716938   T   T   T
  0.3167862641271565  0.8745902502361657  0.8366583491461075   T   T   T
  0.1833074541364965  0.3740495101119237  0.3339202901998917   F   F   F
  0.3164747410663513  0.6255415974061458  0.8358134853887995   T   T   T
  0.1832639004326140  0.1259627486727979  0.3338573048679194   F   F   F
  0.6834029271010706  0.1259062829963540  0.1659798546337825   F   F   F
  0.8174988367306719  0.6260566137750440  0.6654568328368669   T   T   T
  0.6834285715484469  0.3741454557802228  0.1661310163765606   F   F   F
  0.8180868028118290  0.8733057774711354  0.6653108891944854   T   T   T
  0.2717789217812726  0.8275341460126929  0.0409173665081147   T   T   T
  0.2271237881017711  0.3276058948125495  0.5390136658916944   F   F   F
  0.2716851736888230  0.6724658179537041  0.0402191815786903   T   T   T
  0.2271202873219309  0.1724799435127480  0.5389173023724467   F   F   F
  0.7267472501634842  0.1723610876501098  0.9604303881170466   F   F   F
  0.7700368990086698  0.6684359021035781  0.4623874208319338   T   T   T
  0.7268216124557796  0.3276504608084423  0.9606404345553159   F   F   F
  0.7709058100868538  0.8301413637868230  0.4620317684363684   T   T   T
  0.1158684231512370  0.8278326186195861  0.0252830888996048   T   T   T
  0.3827581189327915  0.3278378273251619  0.5246491080329818   F   F   F
  0.1158207679728758  0.6726171248047214  0.0245008929852651   T   T   T
  0.3827275409154680  0.1721328363621524  0.5246189896410982   F   F   F
  0.8826748189633378  0.1720728385653771  0.9752648999179740   F   F   F
  0.6198735012262291  0.6686208480163157  0.4762676842782722   T   T   T
  0.8827059240094073  0.3279195982384806  0.9753863353167560   F   F   F
  0.6204020491367902  0.8308375732790920  0.4754228727458394   T   T   T
  0.0697873883470308  0.8811698877513341  0.8168452756279050   T   T   T
  0.4310362713513314  0.3815536136468793  0.3171561254436810   F   F   F
  0.0692943066820181  0.6189038710736671  0.8163232984952666   T   T   T
  0.4310160210270055  0.1184563301937942  0.3171106125946963   F   F   F
  0.9308107186515571  0.1189823214311971  0.1834600447849795   F   F   F
  0.5680289785935192  0.6197275378832984  0.6840116023712628   T   T   T
  0.9308747943928424  0.3809922836910218  0.1834914197417490   F   F   F
  0.5685765973495214  0.8798733791866882  0.6831721685752881   T   T   T
  0.1959299661293671  0.8276456715037566  0.7034148318132428   T   T   T
  0.3055343881691073  0.3279008594260304  0.2027792002935414   F   F   F
  0.1953232862361075  0.6722042804969403  0.7027060602824671   T   T   T
  0.3054784587058776  0.1721382358153463  0.2027155232773481   F   F   F
  0.8051754997750677  0.1721935395061607  0.2975943809345409   F   F   F
  0.6953451833874509  0.6720759516433359  0.7969229153808806   T   T   T
  0.8052597360911449  0.3277658206369907  0.2976066237846595   F   F   F
  0.6958268989797186  0.8277888476802336  0.7966809165670959   T   T   T
  0.3318563609378103  0.7520908403484858  0.2985608901712299   T   T   T
  0.4231194941185512  0.7501426517285725  0.3816945811967318   T   T   T
  0.4366181675292032  0.7498830147526828  0.2255231625733086   T   T   T
  0.4829901974652934  0.7433567912537138  0.4722019869997801   T   T   T
  0.3891777926245498  0.7497650232023385  0.1789127473301240   T   T   T
  0.4624452879136644  0.7957194739103803  0.2017637863646686   T   T   T
  0.4618519362469874  0.7034434838716775  0.2029365662468519   T   T   T
 
  0.00000000E+00  0.00000000E+00  0.00000000E+00
  0.00000000E+00  0.00000000E+00  0.00000000E+00
  0.00000000E+00  0.00000000E+00  0.00000000E+00
  0.00000000E+00  0.00000000E+00  0.00000000E+00
  0.00000000E+00  0.00000000E+00  0.00000000E+00
  0.00000000E+00  0.00000000E+00  0.00000000E+00
  0.00000000E+00  0.00000000E+00  0.00000000E+00
  0.00000000E+00  0.00000000E+00  0.00000000E+00
  0.00000000E+00  0.00000000E+00  0.00000000E+00
  0.00000000E+00  0.00000000E+00  0.00000000E+00
  0.00000000E+00  0.00000000E+00  0.00000000E+00
  0.00000000E+00  0.00000000E+00  0.00000000E+00
  0.00000000E+00  0.00000000E+00  0.00000000E+00
  0.00000000E+00  0.00000000E+00  0.00000000E+00
  0.00000000E+00  0.00000000E+00  0.00000000E+00
  0.00000000E+00  0.00000000E+00  0.00000000E+00
  0.00000000E+00  0.00000000E+00  0.00000000E+00
  0.00000000E+00  0.00000000E+00  0.00000000E+00
  0.00000000E+00  0.00000000E+00  0.00000000E+00
  0.00000000E+00  0.00000000E+00  0.00000000E+00
  0.00000000E+00  0.00000000E+00  0.00000000E+00
  0.00000000E+00  0.00000000E+00  0.00000000E+00
  0.00000000E+00  0.00000000E+00  0.00000000E+00
  0.00000000E+00  0.00000000E+00  0.00000000E+00
  0.00000000E+00  0.00000000E+00  0.00000000E+00
  0.00000000E+00  0.00000000E+00  0.00000000E+00
  0.00000000E+00  0.00000000E+00  0.00000000E+00
  0.00000000E+00  0.00000000E+00  0.00000000E+00
  0.00000000E+00  0.00000000E+00  0.00000000E+00
  0.00000000E+00  0.00000000E+00  0.00000000E+00
  0.00000000E+00  0.00000000E+00  0.00000000E+00
  0.00000000E+00  0.00000000E+00  0.00000000E+00
  0.00000000E+00  0.00000000E+00  0.00000000E+00
  0.00000000E+00  0.00000000E+00  0.00000000E+00
  0.00000000E+00  0.00000000E+00  0.00000000E+00
  0.00000000E+00  0.00000000E+00  0.00000000E+00
  0.00000000E+00  0.00000000E+00  0.00000000E+00
  0.00000000E+00  0.00000000E+00  0.00000000E+00
  0.00000000E+00  0.00000000E+00  0.00000000E+00
  0.00000000E+00  0.00000000E+00  0.00000000E+00
  0.00000000E+00  0.00000000E+00  0.00000000E+00
  0.00000000E+00  0.00000000E+00  0.00000000E+00
  0.00000000E+00  0.00000000E+00  0.00000000E+00
  0.00000000E+00  0.00000000E+00  0.00000000E+00
  0.00000000E+00  0.00000000E+00  0.00000000E+00
  0.00000000E+00  0.00000000E+00  0.00000000E+00
  0.00000000E+00  0.00000000E+00  0.00000000E+00
  0.00000000E+00  0.00000000E+00  0.00000000E+00
  0.00000000E+00  0.00000000E+00  0.00000000E+00
  0.00000000E+00  0.00000000E+00  0.00000000E+00
  0.00000000E+00  0.00000000E+00  0.00000000E+00
  0.00000000E+00  0.00000000E+00  0.00000000E+00
  0.00000000E+00  0.00000000E+00  0.00000000E+00
  0.00000000E+00  0.00000000E+00  0.00000000E+00
  0.00000000E+00  0.00000000E+00  0.00000000E+00
  0.00000000E+00  0.00000000E+00  0.00000000E+00
  0.00000000E+00  0.00000000E+00  0.00000000E+00
  0.00000000E+00  0.00000000E+00  0.00000000E+00
  0.00000000E+00  0.00000000E+00  0.00000000E+00
  0.00000000E+00  0.00000000E+00  0.00000000E+00
  0.00000000E+00  0.00000000E+00  0.00000000E+00
  0.00000000E+00  0.00000000E+00  0.00000000E+00
  0.00000000E+00  0.00000000E+00  0.00000000E+00
  0.00000000E+00  0.00000000E+00  0.00000000E+00
  0.00000000E+00  0.00000000E+00  0.00000000E+00
  0.00000000E+00  0.00000000E+00  0.00000000E+00
  0.00000000E+00  0.00000000E+00  0.00000000E+00
  0.00000000E+00  0.00000000E+00  0.00000000E+00
  0.00000000E+00  0.00000000E+00  0.00000000E+00
  0.00000000E+00  0.00000000E+00  0.00000000E+00
  0.00000000E+00  0.00000000E+00  0.00000000E+00
  0.00000000E+00  0.00000000E+00  0.00000000E+00
  0.00000000E+00  0.00000000E+00  0.00000000E+00
  0.00000000E+00  0.00000000E+00  0.00000000E+00
  0.00000000E+00  0.00000000E+00  0.00000000E+00
  0.00000000E+00  0.00000000E+00  0.00000000E+00
  0.00000000E+00  0.00000000E+00  0.00000000E+00
  0.00000000E+00  0.00000000E+00  0.00000000E+00
  0.00000000E+00  0.00000000E+00  0.00000000E+00
  0.00000000E+00  0.00000000E+00  0.00000000E+00
  0.00000000E+00  0.00000000E+00  0.00000000E+00
  0.00000000E+00  0.00000000E+00  0.00000000E+00
  0.00000000E+00  0.00000000E+00  0.00000000E+00
  0.00000000E+00  0.00000000E+00  0.00000000E+00
  0.00000000E+00  0.00000000E+00  0.00000000E+00
  0.00000000E+00  0.00000000E+00  0.00000000E+00
  0.00000000E+00  0.00000000E+00  0.00000000E+00
  0.00000000E+00  0.00000000E+00  0.00000000E+00
  0.00000000E+00  0.00000000E+00  0.00000000E+00
  0.00000000E+00  0.00000000E+00  0.00000000E+00
  0.00000000E+00  0.00000000E+00  0.00000000E+00
  0.00000000E+00  0.00000000E+00  0.00000000E+00
  0.00000000E+00  0.00000000E+00  0.00000000E+00
  0.00000000E+00  0.00000000E+00  0.00000000E+00
  0.00000000E+00  0.00000000E+00  0.00000000E+00
  0.00000000E+00  0.00000000E+00  0.00000000E+00
  0.00000000E+00  0.00000000E+00  0.00000000E+00
  0.00000000E+00  0.00000000E+00  0.00000000E+00
  0.00000000E+00  0.00000000E+00  0.00000000E+00
  0.00000000E+00  0.00000000E+00  0.00000000E+00
  0.00000000E+00  0.00000000E+00  0.00000000E+00
  0.00000000E+00  0.00000000E+00  0.00000000E+00
  0.00000000E+00  0.00000000E+00  0.00000000E+00
  0.00000000E+00  0.00000000E+00  0.00000000E+00
  0.00000000E+00  0.00000000E+00  0.00000000E+00
  0.00000000E+00  0.00000000E+00  0.00000000E+00
  0.00000000E+00  0.00000000E+00  0.00000000E+00
  0.00000000E+00  0.00000000E+00  0.00000000E+00
  0.00000000E+00  0.00000000E+00  0.00000000E+00
  0.00000000E+00  0.00000000E+00  0.00000000E+00
  0.00000000E+00  0.00000000E+00  0.00000000E+00
  0.00000000E+00  0.00000000E+00  0.00000000E+00
  0.00000000E+00  0.00000000E+00  0.00000000E+00
  0.00000000E+00  0.00000000E+00  0.00000000E+00
  0.00000000E+00  0.00000000E+00  0.00000000E+00
  0.00000000E+00  0.00000000E+00  0.00000000E+00
  0.00000000E+00  0.00000000E+00  0.00000000E+00
  0.00000000E+00  0.00000000E+00  0.00000000E+00
  0.00000000E+00  0.00000000E+00  0.00000000E+00
  0.00000000E+00  0.00000000E+00  0.00000000E+00
  0.00000000E+00  0.00000000E+00  0.00000000E+00
  0.00000000E+00  0.00000000E+00  0.00000000E+00
  0.00000000E+00  0.00000000E+00  0.00000000E+00
  0.00000000E+00  0.00000000E+00  0.00000000E+00
  0.00000000E+00  0.00000000E+00  0.00000000E+00
  0.00000000E+00  0.00000000E+00  0.00000000E+00
  0.00000000E+00  0.00000000E+00  0.00000000E+00
  0.00000000E+00  0.00000000E+00  0.00000000E+00
  0.00000000E+00  0.00000000E+00  0.00000000E+00
  0.00000000E+00  0.00000000E+00  0.00000000E+00
  0.00000000E+00  0.00000000E+00  0.00000000E+00
  0.00000000E+00  0.00000000E+00  0.00000000E+00
  0.00000000E+00  0.00000000E+00  0.00000000E+00
  0.00000000E+00  0.00000000E+00  0.00000000E+00
  0.00000000E+00  0.00000000E+00  0.00000000E+00
  0.00000000E+00  0.00000000E+00  0.00000000E+00
  0.00000000E+00  0.00000000E+00  0.00000000E+00
  0.00000000E+00  0.00000000E+00  0.00000000E+00
  0.00000000E+00  0.00000000E+00  0.00000000E+00
  0.00000000E+00  0.00000000E+00  0.00000000E+00
  0.00000000E+00  0.00000000E+00  0.00000000E+00
  0.00000000E+00  0.00000000E+00  0.00000000E+00
  0.00000000E+00  0.00000000E+00  0.00000000E+00
  0.00000000E+00  0.00000000E+00  0.00000000E+00
  0.00000000E+00  0.00000000E+00  0.00000000E+00
  0.00000000E+00  0.00000000E+00  0.00000000E+00
  0.00000000E+00  0.00000000E+00  0.00000000E+00
  0.00000000E+00  0.00000000E+00  0.00000000E+00
  0.00000000E+00  0.00000000E+00  0.00000000E+00
  0.00000000E+00  0.00000000E+00  0.00000000E+00
  0.00000000E+00  0.00000000E+00  0.00000000E+00
  0.00000000E+00  0.00000000E+00  0.00000000E+00
  0.00000000E+00  0.00000000E+00  0.00000000E+00
  0.00000000E+00  0.00000000E+00  0.00000000E+00
  0.00000000E+00  0.00000000E+00  0.00000000E+00
  0.00000000E+00  0.00000000E+00  0.00000000E+00
  0.00000000E+00  0.00000000E+00  0.00000000E+00
  0.00000000E+00  0.00000000E+00  0.00000000E+00
  0.00000000E+00  0.00000000E+00  0.00000000E+00
  0.00000000E+00  0.00000000E+00  0.00000000E+00
  0.00000000E+00  0.00000000E+00  0.00000000E+00
  0.00000000E+00  0.00000000E+00  0.00000000E+00
  0.00000000E+00  0.00000000E+00  0.00000000E+00
  0.00000000E+00  0.00000000E+00  0.00000000E+00
  0.00000000E+00  0.00000000E+00  0.00000000E+00