O  Si Ru C  O  H                        
   1.00000000000000     
    20.3096463179830877    0.0000000000000000    0.0000000000000000
     0.0000000000000000   19.8625212307842212    0.0000000000000000
     0.0000000000000000    0.0000000000000000   13.3711533343531652
   O    Si   Ru   C    O    H 
   192    96     3     1     2     1
Selective dynamics
Direct
  0.5032249653525440  0.0737085166921077  0.7055227530470844   F   F   F
  0.9969382369043771  0.5697582665608394  0.2108057210010728   F   F   F
  0.5029578581656295  0.4264858606269257  0.7058790070935075   F   F   F
  0.9970559675386568  0.9305106703047770  0.2111274527986140   F   F   F
  0.4974395435940622  0.9257908055456809  0.2955443878339210   F   F   F
  0.0034670621075037  0.4285904418433901  0.7895181776440836   F   F   F
  0.4995915209274528  0.5634984673656618  0.2854618593890947   F   F   F
  0.0037287099358281  0.0711986487132563  0.7893336048240300   F   F   F
  0.3889991610263337  0.0654887655592518  0.7980348878926122   F   F   F
  0.1127124407737270  0.5675242673424563  0.2983953608095931   F   F   F
  0.3892384937103159  0.4341940769528208  0.7979319244227696   F   F   F
  0.1126407436552697  0.9322233501437154  0.2982043689027236   F   F   F
  0.6106109245624722  0.9360209243936524  0.1973715897500270   F   F   F
  0.8874990050207856  0.4318119603528530  0.7019915687899640   F   F   F
  0.6119455380676229  0.5650702113818511  0.1986762616389797   F   F   F
  0.8875527223825515  0.0681816812444467  0.7018185715786132   F   F   F
  0.3998034844168146  0.1400126032096836  0.6345574369400282   F   F   F
  0.0958023175803859  0.6391812444748695  0.1324138993067336   F   F   F
  0.3998915589463365  0.3604351638490826  0.6354908809246425   F   F   F
  0.0949433615156821  0.8610102947808329  0.1335461123624953   F   F   F
  0.6054102431056165  0.8647401999637054  0.3643896514720453   F   F   F
  0.9038132968377752  0.3611412084899541  0.8672587646324246   F   F   F
  0.6069981839054321  0.6338217657570198  0.3661268278283032   F   F   F
  0.9038273549565190  0.1388928400105982  0.8673181344835186   F   F   F
  0.4052087315816166  0.0065480688535686  0.6223769555676455   F   F   F
  0.0958039566897924  0.5046963199648147  0.1241182811368517   F   F   F
  0.4052593676530165  0.4939801728397271  0.6221123991001889   F   F   F
  0.0961522190754067  0.9951636216336937  0.1236066201043755   F   F   F
  0.5943964885669857  0.9991599160227551  0.3733357488677100   F   F   F
  0.9057809516376807  0.4957985950910100  0.8760250850108520   F   F   F
  0.5960072790032456  0.5022492198345887  0.3721306232900474   F   F   F
  0.9056345324139983  0.0041287339806786  0.8760135333355592   F   F   F
  0.3239038177927540  0.0396417822356767  0.9638581388734124   F   F   F
  0.1753958037303818  0.5376908306097974  0.4655468139705548   F   F   F
  0.3234203873201480  0.4605286231720882  0.9648495789566880   F   F   F
  0.1753545941776125  0.9618492037670308  0.4645761710687566   F   F   F
  0.6786190964854271  0.9624126809648175  0.0332207653736489   F   F   F
  0.8244107684071764  0.4614600811055993  0.5353025236891682   F   F   F
  0.6788017017291708  0.5371408736654217  0.0336926742254349   F   F   F
  0.8240304100941742  0.0383449514601608  0.5351747191593361   F   F   F
  0.3179286593062258  0.9548550168361487  0.8089681569378300   F   F   F
  0.1786018496984880  0.4539994827084541  0.3065393406578423   F   F   F
  0.3178176679607390  0.5458197900828026  0.8081226748109174   F   F   F
  0.1789361487761099  0.0464230826787215  0.3068588058475328   F   F   F
  0.6823688271269717  0.0471177514770389  0.1920627591668165   F   F   F
  0.8214962089707214  0.5453146057905087  0.6935866071203733   F   F   F
  0.6829151168498981  0.4530263367982599  0.1918399940552789   F   F   F
  0.8214952190507532  0.9543264688267001  0.6933792996115500   F   F   F
  0.2578706285101973  0.0711699043499792  0.8010264554059177   F   F   F
  0.2443009058321692  0.5685391456500000  0.3046149787762928   F   F   F
  0.2577961633198242  0.4286896745178623  0.8011926575788308   F   F   F
  0.2439476387582786  0.9312058968796677  0.3032754794431938   F   F   F
  0.7427055880829201  0.9290006458301008  0.2003538478114919   F   F   F
  0.7560118143714476  0.4299932686608443  0.6970402017143940   F   F   F
  0.7438206377847507  0.5703315749157412  0.1985299470842889   F   F   F
  0.7560579779402374  0.0699186506248424  0.6969491633761820   F   F   F
  0.2921191359173321  0.1268436413949630  0.1076469905516646   F   F   F
  0.2087156119687705  0.6245477840107583  0.6068467398054693   F   F   F
  0.2917943126464735  0.3741887306909391  0.1068654081885043   F   F   F
  0.2089332407060454  0.8754629797427782  0.6069418485226734   F   F   F
  0.7091116079196311  0.8734391024516199  0.8946586003626180   F   F   F
  0.7915038986234038  0.3755831398158520  0.3930959721474423   F   F   F
  0.7094203807245236  0.6269258391053185  0.8945971390494307   F   F   F
  0.7912530966041516  0.1244630938596032  0.3927794934189421   F   F   F
  0.1991670211582814  0.0451099345034578  0.0264755298234149   F   F   F
  0.2991217794309904  0.5413621341745625  0.5283606300417532   F   F   F
  0.2002151292039258  0.4551620934422402  0.0273297921953528   F   F   F
  0.2978734549822306  0.9586309252716489  0.5286723049565936   F   F   F
  0.8017402875474673  0.9548583196460143  0.9707810158693491   F   F   F
  0.7009626036329877  0.4580864887014755  0.4707992178800779   F   F   F
  0.8019958973421879  0.5448670176448047  0.9705340424490814   F   F   F
  0.7012366050466596  0.0408588497987807  0.4693054120550570   F   F   F
  0.2924325347643091  0.9952637598331719  0.1443600892660868   F   F   F
  0.2040106334194078  0.4950801584054503  0.6473096186032237   F   F   F
  0.2928767944707857  0.5054563388141915  0.1465650366121949   F   F   F
  0.2039787318347450  0.0053282658332208  0.6473356912989772   F   F   F
  0.7075187477580158  0.0028220126924268  0.8519421442997981   F   F   F
  0.7971719648732503  0.5053959423204049  0.3536492480165379   F   F   F
  0.7073699892102709  0.4971078813544239  0.8510366221141439   F   F   F
  0.7971022269783958  0.9942523885201098  0.3528614571063287   F   F   F
  0.1087386809235440  0.1277417438009891  0.0977333785132757   F   F   F
  0.3867472072922666  0.6265281230040998  0.6031374281025776   F   F   F
  0.1087541927763311  0.3719566881628111  0.0978310055485352   F   F   F
  0.3869817876062527  0.8744075617291216  0.6039639824930205   F   F   F
  0.8942067562716289  0.8721765555340539  0.9009504542989006   F   F   F
  0.6108488122874078  0.3714142408644747  0.4065903552067027   F   F   F
  0.8939103803572834  0.6277351686775390  0.9007496435293447   F   F   F
  0.6104265729021918  0.1286830736585216  0.4055239976406639   F   F   F
  0.0808574374448767  0.0483253019129393  0.9453567175778161   F   F   F
  0.4176908998293740  0.5510486639930576  0.4450258609402695   F   F   F
  0.0808860284377602  0.4517522854397242  0.9452900304388692   F   F   F
  0.4172437753675027  0.9496669284710606  0.4448528150764091   F   F   F
  0.9203611547903208  0.9518315083635116  0.0537635466267758   F   F   F
  0.5830420808291734  0.4542298347576761  0.5555467834737584   F   F   F
  0.9201593529316341  0.5483038614077174  0.0539353006689964   F   F   F
  0.5827735020323885  0.0449238251535888  0.5559174210941151   F   F   F
  0.1302441714402391  0.0806059925778584  0.7671581342395939   F   F   F
  0.3696505433164674  0.5784591144523361  0.2608658644342157   F   F   F
  0.1303201375617746  0.4194431528583067  0.7671391155618679   F   F   F
  0.3694519084756251  0.9235926736661213  0.2600150016384219   F   F   F
  0.8699060363821829  0.9191206819505453  0.2312185104665261   F   F   F
  0.6283905448612472  0.4251664148290928  0.7356394828476951   F   F   F
  0.8709141928455324  0.5809492069474160  0.2321557196797599   F   F   F
  0.6288755882373422  0.0746058490125350  0.7355883183420744   F   F   F
  0.0774392528731482  0.9602271494638117  0.7948705415992876   F   F   F
  0.4226567001825856  0.4600148852806427  0.2986936230733619   F   F   F
  0.0772496373164344  0.5397794498710766  0.7947008599039194   F   F   F
  0.4274627555264132  0.0403014293270161  0.2967634949526854   F   F   F
  0.9215002772161682  0.0393463493751653  0.2052404836675024   F   F   F
  0.5684143348567261  0.5419841745519847  0.7040175501892847   F   F   F
  0.9218275968217355  0.4608452438685049  0.2051926474875927   F   F   F
  0.5678083319563996  0.9577534787300266  0.7045909314784780   F   F   F
  0.2140727566177958  0.1399761688203611  0.6470799552876301   F   F   F
  0.2831646271845969  0.6392929187780751  0.1490559097475881   F   F   F
  0.2140344830008232  0.3602719246703714  0.6472521454766209   F   F   F
  0.2859424419004171  0.8608474202095380  0.1505648535834894   F   F   F
  0.7870096497351753  0.8605032628197833  0.3508492004395194   F   F   F
  0.7123515634182667  0.3628863910407247  0.8515707982264473   F   F   F
  0.7866170677334239  0.6400415792953851  0.3519953896642534   F   F   F
  0.7122825436847720  0.1372252710721185  0.8517375450178690   F   F   F
  0.4992813754804573  0.8443005130482319  0.7039347180049731   F   F   F
  0.0027168506745880  0.3558498538004784  0.2142931917129260   F   F   F
  0.4982743856609773  0.6553258801817918  0.7053911603057301   F   F   F
  0.0027007065368423  0.1439602040328651  0.2144146523636365   F   F   F
  0.5037344711806213  0.1470488954984219  0.2906056324956126   F   F   F
  0.9979566088286163  0.6458657109400434  0.7806611842670748   F   F   F
  0.5029729903514024  0.3535993970107043  0.2908418762672227   F   F   F
  0.9983339739119685  0.8541416565094693  0.7813667187653479   F   F   F
  0.3851770522266094  0.8396663217082150  0.7953156889006792   F   F   F
  0.1200733615297978  0.3351110025487500  0.2893911775272073   F   F   F
  0.3854042308206971  0.6601801742097422  0.7966475216807254   F   F   F
  0.1199371828198892  0.1648051123990086  0.2893535346359783   F   F   F
  0.6199125966273371  0.1633985652978538  0.2129911270127849   F   F   F
  0.8805520334331405  0.6647633425785031  0.7100892435531065   F   F   F
  0.6197468562596384  0.3363921992214856  0.2130972668370106   F   F   F
  0.8806424202049783  0.8357078403491727  0.7099415168201304   F   F   F
  0.4103978312589120  0.7490817593252430  0.6539203967642990   F   F   F
  0.0730577468267768  0.2500229137269727  0.1528967453985857   F   F   F
  0.5771173935361844  0.2501792895460966  0.3502897752313459   F   F   F
  0.9273697674467343  0.7498068153002322  0.8452218989144313   F   F   F
  0.3158988529718130  0.8663413553024384  0.9590623316416114   F   F   F
  0.1828784890919195  0.3674366115396808  0.4558409410162696   F   F   F
  0.3160622251967382  0.6338813944435557  0.9582239354659947   F   F   F
  0.1829027161813386  0.1326627655985249  0.4561124704175299   F   F   F
  0.6824696802612067  0.1352227427073842  0.0445006695542105   F   F   F
  0.8175494726873112  0.6316584922474604  0.5435401452562090   F   F   F
  0.6824610533466995  0.3646532083349143  0.0445056782841746   F   F   F
  0.8176465147435081  0.8688345645472069  0.5444493458307988   F   F   F
  0.2540217415465662  0.8390230149857842  0.7874196359975514   F   F   F
  0.2499566491220904  0.3424386935474928  0.2901317045745273   F   F   F
  0.2544420180154532  0.6609348888102460  0.7870355594388769   F   F   F
  0.2505588839045885  0.1573868135478449  0.2897900314217807   F   F   F
  0.7504993209920272  0.1594303945133575  0.2096925020103058   F   F   F
  0.7498623918510816  0.6564336234754151  0.7101264335862467   F   F   F
  0.7504782448020819  0.3402954419198778  0.2095748852307295   F   F   F
  0.7501426552227315  0.8436796842059024  0.7099340689517746   F   F   F
  0.2907093413954982  0.7498966798627507  0.0457238727880735   F   F   F
  0.2021736061156076  0.2500396668636355  0.5429595318816638   F   F   F
  0.7052917407836858  0.2499610583383713  0.9512293833800030   F   F   F
  0.8032792109258438  0.7497222756019397  0.4568933661238503   F   F   F
  0.1943357040500402  0.8388488212111156  0.0096497438414573   F   F   F
  0.3034899692016708  0.3321775304395800  0.5083643026746500   F   F   F
  0.1932000572546215  0.6621569543699124  0.0068160121641583   F   F   F
  0.3035293172544016  0.1675354356105956  0.5084425835627400   F   F   F
  0.8032989553737693  0.1644812861744001  0.9887206933995003   F   F   F
  0.6969762863686455  0.6725634546065535  0.4910069685046565   F   F   F
  0.8033326686669042  0.3353474785295418  0.9887915243266718   F   F   F
  0.6981877632891269  0.8286476231407747  0.4902320728856395   F   F   F
  0.0955622780645911  0.7496651120896090  0.0255797869996499   F   F   F
  0.4062438875766787  0.2498027140451953  0.5250896502185682   F   F   F
  0.9046264063559448  0.2500017224447575  0.9752081454575716   F   F   F
  0.5941729802557276  0.7498710967576017  0.4638273884591229   F   F   F
  0.0775950850398957  0.8682291311539601  0.9376811931447335   F   F   F
  0.4192104494560240  0.3688554900918248  0.4399183169256062   F   F   F
  0.0767345096986887  0.6321970345561567  0.9376375961113581   F   F   F
  0.4185943446434095  0.1302953785281602  0.4406633809924756   F   F   F
  0.9191616563677130  0.1316464520112461  0.0636694695712521   F   F   F
  0.5846148032497709  0.6332893965620912  0.5598543047973905   F   F   F
  0.9191874357824403  0.3682799054659753  0.0637013575303484   F   F   F
  0.5850787449814163  0.8687714490537672  0.5613287407223098   F   F   F
  0.1254958498119692  0.8402791570821506  0.7551508003378302   F   F   F
  0.3778550937947784  0.3401467609989766  0.2532638094111874   F   F   F
  0.1259433435969797  0.6598203244357421  0.7551454448225883   F   F   F
  0.3769119195227901  0.1582129681172120  0.2517559058117556   F   F   F
  0.8774808996760228  0.1608636991434764  0.2498807514532828   F   F   F
  0.6232342019958423  0.6589572495747120  0.7498113777429793   F   F   F
  0.8775155201075791  0.3390592426209622  0.2498001641272865   F   F   F
  0.6231665289267028  0.8411516574269129  0.7494319493954436   F   F   F
  0.2006658919543014  0.7497877682681917  0.6646029332589265   F   F   F
  0.3008331491144460  0.2494976636735515  0.1687074916862841   F   F   F
  0.7993582393928733  0.2500436762236831  0.3359123885671025   F   F   F
  0.7017553982611489  0.7499076849612720  0.8311029670473857   F   F   F
  0.4236908947369997  0.0696739552236210  0.6891539741235349   F   F   F
  0.0753080329782563  0.5697221099781586  0.1896664627400924   F   F   F
  0.4238252802870761  0.4297430894559326  0.6894270561061475   F   F   F
  0.0746811175872821  0.9309579111004282  0.1900165455242444   F   F   F
  0.5768576855380090  0.9315141392019086  0.3080909693161047   F   F   F
  0.9251190435498984  0.4290982402534596  0.8092667634363266   F   F   F
  0.5776055073262114  0.5683838708425881  0.3070597797490109   F   F   F
  0.9252023970721908  0.0706468945608663  0.8093031198440954   F   F   F
  0.3221129987736120  0.0322598874744529  0.8432601330520484   F   F   F
  0.1781814031798419  0.5317920418831150  0.3444364069119885   F   F   F
  0.3220138921630635  0.4666434269242004  0.8445075736899383   F   F   F
  0.1778921291517435  0.9684502125924368  0.3447609699565177   F   F   F
  0.6784556750730459  0.9687953110500942  0.1554240875463506   F   F   F
  0.8224313901283864  0.4673454553463898  0.6556975777370155   F   F   F
  0.6784771090749331  0.5318543217312879  0.1558788016559092   F   F   F
  0.8222060664317965  0.0328959537213649  0.6559903976091803   F   F   F
  0.2766792599074250  0.0513312940811375  0.0615536845271123   F   F   F
  0.2222876962360800  0.5495641445791790  0.5629593533654358   F   F   F
  0.2772382410241008  0.4486932872105811  0.0621174192467535   F   F   F
  0.2230619750800855  0.9502021147813124  0.5630628786544492   F   F   F
  0.7245330069032150  0.9482379138110417  0.9379799343936384   F   F   F
  0.7781691966233240  0.4506214493682421  0.4368951800842780   F   F   F
  0.7245255796959853  0.5517842094099024  0.9378840382549569   F   F   F
  0.7778682892137780  0.0498232594656116  0.4369646265644036   F   F   F
  0.1211435882969596  0.0545158419330818  0.0486670845270680   F   F   F
  0.3774011007561455  0.5527986850405853  0.5489661379377679   F   F   F
  0.1212583078967882  0.4453047795333305  0.0485685073007218   F   F   F
  0.3766081727321335  0.9480907696231640  0.5486870943904307   F   F   F
  0.8799391236745180  0.9459833344234241  0.9499569379454513   F   F   F
  0.6231814444288446  0.4471362147781477  0.4496626474820076   F   F   F
  0.8797429928923250  0.5539831853417425  0.9502037116830877   F   F   F
  0.6226366111952260  0.0531358135069908  0.4498867464302663   F   F   F
  0.0727264871860882  0.0398681464459330  0.8252445876678536   F   F   F
  0.4281074996963241  0.5409138035636900  0.3255244279073395   F   F   F
  0.0729514384124172  0.4599975968593171  0.8254978292115851   F   F   F
  0.4288775103193814  0.9591981788302419  0.3267692703532603   F   F   F
  0.9266248065223195  0.9611064308215802  0.1742816902956363   F   F   F
  0.5713755356483290  0.4631725958139512  0.6737165061743724   F   F   F
  0.9263357112510207  0.5392842044001540  0.1749330853884672   F   F   F
  0.5717715509545300  0.0369789660785003  0.6735506795511981   F   F   F
  0.2016155750630517  0.0727004882190698  0.7146101022599964   F   F   F
  0.2991884920552010  0.5721261706792546  0.2150656003471028   F   F   F
  0.2016228029366758  0.4267421700785903  0.7154142357659126   F   F   F
  0.2983521110958165  0.9285144159236367  0.2136481308261722   F   F   F
  0.7984528659699279  0.9267504745839190  0.2850982592751521   F   F   F
  0.7017151900707077  0.4299477451812308  0.7856069141741457   F   F   F
  0.7987144032224123  0.5733323016471488  0.2853285645161208   F   F   F
  0.7014477962244072  0.0706864583025180  0.7848214931869251   F   F   F
  0.4218688491569225  0.8263141577684365  0.6891901959156002   F   F   F
  0.0757948803774156  0.3285498109213094  0.1879626304439768   F   F   F
  0.4216303824746959  0.6722041061429209  0.6895656640382839   F   F   F
  0.0756243102495944  0.1717090180816570  0.1875917149539816   F   F   F
  0.5780435991167892  0.1719219541056987  0.3155677217082271   F   F   F
  0.9251071414928589  0.6715856570034333  0.8098987242385149   F   F   F
  0.5775286358886547  0.3287295408876147  0.3151965149112144   F   F   F
  0.9252212485289775  0.8281595815005076  0.8101118379344570   F   F   F
  0.3186033356146964  0.8750364530736903  0.8370325265687200   F   F   F
  0.1829272916438782  0.3739875654376874  0.3347091274108962   F   F   F
  0.3182108893863713  0.6244957588055300  0.8403431865528646   F   F   F
  0.1829071231169621  0.1251920378392342  0.3348953166165316   F   F   F
  0.6837907508000285  0.1263949479566122  0.1655351428740204   F   F   F
  0.8171376089202624  0.6244613859293651  0.6639501864272361   F   F   F
  0.6837223857653356  0.3739792925740915  0.1654260725465093   F   F   F
  0.8170826328934098  0.8753673191024447  0.6645439302621128   F   F   F
  0.2719341580416668  0.8273924582447592  0.0414574457475041   F   F   F
  0.2259451107705743  0.3276459565920860  0.5392973625430812   F   F   F
  0.2706112358291435  0.6706126474371672  0.0403951872817174   F   F   F
  0.2260754309127293  0.1726673354951487  0.5390364304457194   F   F   F
  0.7264627107033022  0.1719546491268673  0.9589403591888654   F   F   F
  0.7750502317357899  0.6731725610063108  0.4602765424361621   F   F   F
  0.7265574659947447  0.3282830216636583  0.9597379285500551   F   F   F
  0.7756116313267967  0.8264024701558839  0.4605486362697064   F   F   F
  0.1153295838555692  0.8283960029017834  0.0264202199637324   F   F   F
  0.3820026846063911  0.3279330709882302  0.5272993964673063   F   F   F
  0.1160761037751996  0.6707689494603741  0.0255103040123430   F   F   F
  0.3815736221045469  0.1721059330447048  0.5267975788209185   F   F   F
  0.8825836501967999  0.1717626418435216  0.9735071009911422   F   F   F
  0.6191429048007251  0.6720154021963793  0.4682539906182086   F   F   F
  0.8824682548473248  0.3284536984848572  0.9735815659934843   F   F   F
  0.6197132397397525  0.8275759133769185  0.4686635134635466   F   F   F
  0.0704999808640565  0.8808907952316929  0.8166515756564721   F   F   F
  0.4307240342300176  0.3822095128134322  0.3198008982345044   F   F   F
  0.0698433757931696  0.6187706642680055  0.8178571588827381   F   F   F
  0.4315703983059080  0.1184950224241490  0.3201216866286956   F   F   F
  0.9296303041054799  0.1196911914552388  0.1827387172143347   F   F   F
  0.5699492803087907  0.6221997744891254  0.6786551060269232   F   F   F
  0.9297728705719237  0.3805683978709098  0.1827603089046832   F   F   F
  0.5689484672564191  0.8775322226037474  0.6793120952196645   F   F   F
  0.1973161851258922  0.8270206939017086  0.7032688822221118   F   F   F
  0.3052999418661315  0.3279922768009698  0.2053811543931303   F   F   F
  0.1969289707185098  0.6728580526762471  0.7025442601751877   F   F   F
  0.3052768717423717  0.1723234424384756  0.2051231082399525   F   F   F
  0.8047127205388236  0.1730060144909586  0.2972781523833987   F   F   F
  0.6959707288627044  0.6719280313715288  0.7962999449390438   F   F   F
  0.8046855482499851  0.3272163126430812  0.2969896461648958   F   F   F
  0.6962176418553554  0.8278255175702185  0.7959854924758289   F   F   F
  0.4827686374949351  0.7799196152941263  0.3701122983118381   F   F   F
  0.3676833954948862  0.7843047978485913  0.2923844269076810   F   F   F
  0.3929453032063108  0.7352991363342483  0.4484154820393726   F   F   F
  0.4429758273248225  0.7399414866194931  0.2479611355816758   T   T   T
  0.4675086141798914  0.6838231525298895  0.3513052775577989   T   T   T
  0.4707226212300313  0.7113915666097910  0.1664503135943463   T   T   T
  0.4375591411689825  0.7097362692404445  0.1112239379390260   T   T   T
 
  0.00000000E+00  0.00000000E+00  0.00000000E+00
  0.00000000E+00  0.00000000E+00  0.00000000E+00
  0.00000000E+00  0.00000000E+00  0.00000000E+00
  0.00000000E+00  0.00000000E+00  0.00000000E+00
  0.00000000E+00  0.00000000E+00  0.00000000E+00
  0.00000000E+00  0.00000000E+00  0.00000000E+00
  0.00000000E+00  0.00000000E+00  0.00000000E+00
  0.00000000E+00  0.00000000E+00  0.00000000E+00
  0.00000000E+00  0.00000000E+00  0.00000000E+00
  0.00000000E+00  0.00000000E+00  0.00000000E+00
  0.00000000E+00  0.00000000E+00  0.00000000E+00
  0.00000000E+00  0.00000000E+00  0.00000000E+00
  0.00000000E+00  0.00000000E+00  0.00000000E+00
  0.00000000E+00  0.00000000E+00  0.00000000E+00
  0.00000000E+00  0.00000000E+00  0.00000000E+00
  0.00000000E+00  0.00000000E+00  0.00000000E+00
  0.00000000E+00  0.00000000E+00  0.00000000E+00
  0.00000000E+00  0.00000000E+00  0.00000000E+00
  0.00000000E+00  0.00000000E+00  0.00000000E+00
  0.00000000E+00  0.00000000E+00  0.00000000E+00
  0.00000000E+00  0.00000000E+00  0.00000000E+00
  0.00000000E+00  0.00000000E+00  0.00000000E+00
  0.00000000E+00  0.00000000E+00  0.00000000E+00
  0.00000000E+00  0.00000000E+00  0.00000000E+00
  0.00000000E+00  0.00000000E+00  0.00000000E+00
  0.00000000E+00  0.00000000E+00  0.00000000E+00
  0.00000000E+00  0.00000000E+00  0.00000000E+00
  0.00000000E+00  0.00000000E+00  0.00000000E+00
  0.00000000E+00  0.00000000E+00  0.00000000E+00
  0.00000000E+00  0.00000000E+00  0.00000000E+00
  0.00000000E+00  0.00000000E+00  0.00000000E+00
  0.00000000E+00  0.00000000E+00  0.00000000E+00
  0.00000000E+00  0.00000000E+00  0.00000000E+00
  0.00000000E+00  0.00000000E+00  0.00000000E+00
  0.00000000E+00  0.00000000E+00  0.00000000E+00
  0.00000000E+00  0.00000000E+00  0.00000000E+00
  0.00000000E+00  0.00000000E+00  0.00000000E+00
  0.00000000E+00  0.00000000E+00  0.00000000E+00
  0.00000000E+00  0.00000000E+00  0.00000000E+00
  0.00000000E+00  0.00000000E+00  0.00000000E+00
  0.00000000E+00  0.00000000E+00  0.00000000E+00
  0.00000000E+00  0.00000000E+00  0.00000000E+00
  0.00000000E+00  0.00000000E+00  0.00000000E+00
  0.00000000E+00  0.00000000E+00  0.00000000E+00
  0.00000000E+00  0.00000000E+00  0.00000000E+00
  0.00000000E+00  0.00000000E+00  0.00000000E+00
  0.00000000E+00  0.00000000E+00  0.00000000E+00
  0.00000000E+00  0.00000000E+00  0.00000000E+00
  0.00000000E+00  0.00000000E+00  0.00000000E+00
  0.00000000E+00  0.00000000E+00  0.00000000E+00
  0.00000000E+00  0.00000000E+00  0.00000000E+00
  0.00000000E+00  0.00000000E+00  0.00000000E+00
  0.00000000E+00  0.00000000E+00  0.00000000E+00
  0.00000000E+00  0.00000000E+00  0.00000000E+00
  0.00000000E+00  0.00000000E+00  0.00000000E+00
  0.00000000E+00  0.00000000E+00  0.00000000E+00
  0.00000000E+00  0.00000000E+00  0.00000000E+00
  0.00000000E+00  0.00000000E+00  0.00000000E+00
  0.00000000E+00  0.00000000E+00  0.00000000E+00
  0.00000000E+00  0.00000000E+00  0.00000000E+00
  0.00000000E+00  0.00000000E+00  0.00000000E+00
  0.00000000E+00  0.00000000E+00  0.00000000E+00
  0.00000000E+00  0.00000000E+00  0.00000000E+00
  0.00000000E+00  0.00000000E+00  0.00000000E+00
  0.00000000E+00  0.00000000E+00  0.00000000E+00
  0.00000000E+00  0.00000000E+00  0.00000000E+00
  0.00000000E+00  0.00000000E+00  0.00000000E+00
  0.00000000E+00  0.00000000E+00  0.00000000E+00
  0.00000000E+00  0.00000000E+00  0.00000000E+00
  0.00000000E+00  0.00000000E+00  0.00000000E+00
  0.00000000E+00  0.00000000E+00  0.00000000E+00
  0.00000000E+00  0.00000000E+00  0.00000000E+00
  0.00000000E+00  0.00000000E+00  0.00000000E+00
  0.00000000E+00  0.00000000E+00  0.00000000E+00
  0.00000000E+00  0.00000000E+00  0.00000000E+00
  0.00000000E+00  0.00000000E+00  0.00000000E+00
  0.00000000E+00  0.00000000E+00  0.00000000E+00
  0.00000000E+00  0.00000000E+00  0.00000000E+00
  0.00000000E+00  0.00000000E+00  0.00000000E+00
  0.00000000E+00  0.00000000E+00  0.00000000E+00
  0.00000000E+00  0.00000000E+00  0.00000000E+00
  0.00000000E+00  0.00000000E+00  0.00000000E+00
  0.00000000E+00  0.00000000E+00  0.00000000E+00
  0.00000000E+00  0.00000000E+00  0.00000000E+00
  0.00000000E+00  0.00000000E+00  0.00000000E+00
  0.00000000E+00  0.00000000E+00  0.00000000E+00
  0.00000000E+00  0.00000000E+00  0.00000000E+00
  0.00000000E+00  0.00000000E+00  0.00000000E+00
  0.00000000E+00  0.00000000E+00  0.00000000E+00
  0.00000000E+00  0.00000000E+00  0.00000000E+00
  0.00000000E+00  0.00000000E+00  0.00000000E+00
  0.00000000E+00  0.00000000E+00  0.00000000E+00
  0.00000000E+00  0.00000000E+00  0.00000000E+00
  0.00000000E+00  0.00000000E+00  0.00000000E+00
  0.00000000E+00  0.00000000E+00  0.00000000E+00
  0.00000000E+00  0.00000000E+00  0.00000000E+00
  0.00000000E+00  0.00000000E+00  0.00000000E+00
  0.00000000E+00  0.00000000E+00  0.00000000E+00
  0.00000000E+00  0.00000000E+00  0.00000000E+00
  0.00000000E+00  0.00000000E+00  0.00000000E+00
  0.00000000E+00  0.00000000E+00  0.00000000E+00
  0.00000000E+00  0.00000000E+00  0.00000000E+00
  0.00000000E+00  0.00000000E+00  0.00000000E+00
  0.00000000E+00  0.00000000E+00  0.00000000E+00
  0.00000000E+00  0.00000000E+00  0.00000000E+00
  0.00000000E+00  0.00000000E+00  0.00000000E+00
  0.00000000E+00  0.00000000E+00  0.00000000E+00
  0.00000000E+00  0.00000000E+00  0.00000000E+00
  0.00000000E+00  0.00000000E+00  0.00000000E+00
  0.00000000E+00  0.00000000E+00  0.00000000E+00
  0.00000000E+00  0.00000000E+00  0.00000000E+00
  0.00000000E+00  0.00000000E+00  0.00000000E+00
  0.00000000E+00  0.00000000E+00  0.00000000E+00
  0.00000000E+00  0.00000000E+00  0.00000000E+00
  0.00000000E+00  0.00000000E+00  0.00000000E+00
  0.00000000E+00  0.00000000E+00  0.00000000E+00
  0.00000000E+00  0.00000000E+00  0.00000000E+00
  0.00000000E+00  0.00000000E+00  0.00000000E+00
  0.00000000E+00  0.00000000E+00  0.00000000E+00
  0.00000000E+00  0.00000000E+00  0.00000000E+00
  0.00000000E+00  0.00000000E+00  0.00000000E+00
  0.00000000E+00  0.00000000E+00  0.00000000E+00
  0.00000000E+00  0.00000000E+00  0.00000000E+00
  0.00000000E+00  0.00000000E+00  0.00000000E+00
  0.00000000E+00  0.00000000E+00  0.00000000E+00
  0.00000000E+00  0.00000000E+00  0.00000000E+00
  0.00000000E+00  0.00000000E+00  0.00000000E+00
  0.00000000E+00  0.00000000E+00  0.00000000E+00
  0.00000000E+00  0.00000000E+00  0.00000000E+00
  0.00000000E+00  0.00000000E+00  0.00000000E+00
  0.00000000E+00  0.00000000E+00  0.00000000E+00
  0.00000000E+00  0.00000000E+00  0.00000000E+00
  0.00000000E+00  0.00000000E+00  0.00000000E+00
  0.00000000E+00  0.00000000E+00  0.00000000E+00
  0.00000000E+00  0.00000000E+00  0.00000000E+00
  0.00000000E+00  0.00000000E+00  0.00000000E+00
  0.00000000E+00  0.00000000E+00  0.00000000E+00
  0.00000000E+00  0.00000000E+00  0.00000000E+00
  0.00000000E+00  0.00000000E+00  0.00000000E+00
  0.00000000E+00  0.00000000E+00  0.00000000E+00
  0.00000000E+00  0.00000000E+00  0.00000000E+00
  0.00000000E+00  0.00000000E+00  0.00000000E+00
  0.00000000E+00  0.00000000E+00  0.00000000E+00
  0.00000000E+00  0.00000000E+00  0.00000000E+00
  0.00000000E+00  0.00000000E+00  0.00000000E+00
  0.00000000E+00  0.00000000E+00  0.00000000E+00
  0.00000000E+00  0.00000000E+00  0.00000000E+00
  0.00000000E+00  0.00000000E+00  0.00000000E+00
  0.00000000E+00  0.00000000E+00  0.00000000E+00
  0.00000000E+00  0.00000000E+00  0.00000000E+00
  0.00000000E+00  0.00000000E+00  0.00000000E+00
  0.00000000E+00  0.00000000E+00  0.00000000E+00
  0.00000000E+00  0.00000000E+00  0.00000000E+00
  0.00000000E+00  0.00000000E+00  0.00000000E+00
  0.00000000E+00  0.00000000E+00  0.00000000E+00
  0.00000000E+00  0.00000000E+00  0.00000000E+00
  0.00000000E+00  0.00000000E+00  0.00000000E+00
  0.00000000E+00  0.00000000E+00  0.00000000E+00
  0.00000000E+00  0.00000000E+00  0.00000000E+00
  0.00000000E+00  0.00000000E+00  0.00000000E+00
  0.00000000E+00  0.00000000E+00  0.00000000E+00
  0.00000000E+00  0.00000000E+00  0.00000000E+00
  0.00000000E+00  0.00000000E+00  0.00000000E+00
  0.00000000E+00  0.00000000E+00  0.00000000E+00
  0.00000000E+00  0.00000000E+00  0.00000000E+00