O  Si Ru C  O  H                        
   1.00000000000000     
    20.3096463179830877    0.0000000000000000    0.0000000000000000
     0.0000000000000000   19.8625212307842212    0.0000000000000000
     0.0000000000000000    0.0000000000000000   13.3711533343531652
   O    Si   Ru   C    O    H 
   192    96     2     1     1     4
Selective dynamics
Direct
  0.5029151419623901  0.0735660596726220  0.7069316305773725   F   F   F
  0.9975465120921569  0.5722056013321435  0.2087406600889281   F   F   F
  0.5029625376940245  0.4265088223227380  0.7071140439527213   F   F   F
  0.9972869222066549  0.9274768057878831  0.2081070333709647   F   F   F
  0.4974721225832113  0.9277522841069725  0.2907115938085383   F   F   F
  0.0032184386695491  0.4269330484855089  0.7921409749159594   F   F   F
  0.4977203592960961  0.5720242044357065  0.2903984015411680   F   F   F
  0.0031941412613889  0.0729668753257329  0.7917158063303020   F   F   F
  0.3878579723645430  0.0669556667519231  0.7965548156122182   F   F   F
  0.1133759987999525  0.5681642766849038  0.2964373645987877   F   F   F
  0.3878584358486918  0.4330437684886519  0.7965742164748164   F   F   F
  0.1128224122112371  0.9320578322124149  0.2964355317026772   F   F   F
  0.6129244778076526  0.9320933513851770  0.2023419523246162   F   F   F
  0.8876973671888919  0.4327342034956771  0.7036508835393036   F   F   F
  0.6135821534334056  0.5682784344751042  0.2033449439821382   F   F   F
  0.8876117469000917  0.0673661435016157  0.7035018781795443   F   F   F
  0.4009161058478412  0.1389419031021148  0.6318180153029829   F   F   F
  0.0977369500723668  0.6392841333976804  0.1312216549013527   F   F   F
  0.4010424696537882  0.3610528181545121  0.6318133081225312   F   F   F
  0.0979612621484520  0.8609753508133622  0.1309465988514518   F   F   F
  0.5984603319552591  0.8610679815606588  0.3675123169539987   F   F   F
  0.9019278058779037  0.3610410398314983  0.8685731531220142   F   F   F
  0.5980083133309861  0.6390694413333904  0.3686213550835120   F   F   F
  0.9020589687179950  0.1389418631131747  0.8685141393728202   F   F   F
  0.4059805669348791  0.0047442563955897  0.6216751015979938   F   F   F
  0.0951764573732916  0.5048736608876467  0.1227496371721131   F   F   F
  0.4060063268505516  0.4952757309538711  0.6217644002593659   F   F   F
  0.0948931436988474  0.9952871545361646  0.1226347341610960   F   F   F
  0.5950586737147319  0.9956015004537662  0.3757612974340745   F   F   F
  0.9063174878259801  0.4953848205285425  0.8779651251188270   F   F   F
  0.5950752590078494  0.5043549968709016  0.3761727772273389   F   F   F
  0.9063218528932850  0.0045785558899212  0.8776992153014049   F   F   F
  0.3240114434950669  0.0382407076679172  0.9638230470655600   F   F   F
  0.1763485455368254  0.5378781522500660  0.4641542393044347   F   F   F
  0.3240639192643968  0.4618354887910741  0.9638665486159397   F   F   F
  0.1757900517471640  0.9617614188821122  0.4640258534904120   F   F   F
  0.6767731156523027  0.9620150087902530  0.0358037956601862   F   F   F
  0.8239264782183469  0.4615726959520288  0.5363529546552854   F   F   F
  0.6766273407468262  0.5380862158563389  0.0360413412402991   F   F   F
  0.8238113343158346  0.0383815205381524  0.5362542402135873   F   F   F
  0.3223858520929284  0.9531418171650543  0.8077499174679019   F   F   F
  0.1776758631529702  0.4534601678782408  0.3068976961336460   F   F   F
  0.3217291042216033  0.5466230856040681  0.8071625387420625   F   F   F
  0.1777392319065001  0.0465284403162727  0.3069405612850815   F   F   F
  0.6782953929680886  0.0464276494116262  0.1929820249193881   F   F   F
  0.8214903320832505  0.5463853187552132  0.6930224919608605   F   F   F
  0.6783411531563246  0.4536225664016982  0.1930928964972622   F   F   F
  0.8214473896272452  0.9536938448067858  0.6931870119833974   F   F   F
  0.2563457342386215  0.0684226129951071  0.8017762481607349   F   F   F
  0.2448952522016867  0.5671912581414134  0.3029801725596926   F   F   F
  0.2563604704749665  0.4316428390570621  0.8018556833268136   F   F   F
  0.2441832596447782  0.9321680476721994  0.3023927464964302   F   F   F
  0.7444478828842165  0.9319498343387735  0.1978133457109124   F   F   F
  0.7562410131176875  0.4314383528184749  0.6983979119208144   F   F   F
  0.7450790913829763  0.5677876932779427  0.1974180494790900   F   F   F
  0.7561874466482195  0.0686029683221889  0.6982838657223311   F   F   F
  0.2923457530791964  0.1261305060343005  0.1042687178754136   F   F   F
  0.2082184199391506  0.6261213047268228  0.6038619029663650   F   F   F
  0.2924222850649301  0.3739550916486252  0.1043750301760937   F   F   F
  0.2098875947913825  0.8740883325111213  0.6038228327615371   F   F   F
  0.7080734792886503  0.8738824269640162  0.8954516894320577   F   F   F
  0.7920626114484861  0.3741440791997874  0.3955590558159940   F   F   F
  0.7088776805101062  0.6262128219068757  0.8960743577984047   F   F   F
  0.7918328172678528  0.1258395964698522  0.3955348022627305   F   F   F
  0.2009180106485928  0.0428348962614322  0.0293984412057924   F   F   F
  0.2996968197579477  0.5426935160259490  0.5294112209858000   F   F   F
  0.2010372834083469  0.4573071122565651  0.0296181964629270   F   F   F
  0.2993339423551191  0.9592595134318529  0.5270409383940731   F   F   F
  0.7996969395935025  0.9572122361722393  0.9693530208521608   F   F   F
  0.7007908648720971  0.4573025797676209  0.4705712418615562   F   F   F
  0.7997060817570443  0.5420944581861136  0.9703302267615257   F   F   F
  0.7006462591275380  0.0424959606184885  0.4703037048025678   F   F   F
  0.2961599629760769  0.9961871364251635  0.1464214783266797   F   F   F
  0.2042062705839172  0.4967531181442908  0.6471179485467573   F   F   F
  0.2967512456497943  0.5034965594674716  0.1468170404423290   F   F   F
  0.2042827147657746  0.0033044922153636  0.6469642495983621   F   F   F
  0.7035695737600207  0.0031082455789999  0.8524917251822970   F   F   F
  0.7966009577419371  0.5038039927924629  0.3537093559489008   F   F   F
  0.7037483821235924  0.4970039567455018  0.8526551329040757   F   F   F
  0.7965493173599612  0.9960943434262077  0.3536137224860312   F   F   F
  0.1093131791865716  0.1272507473097590  0.0964945470806668   F   F   F
  0.3890543067671288  0.6257302012342691  0.6025608631036832   F   F   F
  0.1096159065423521  0.3727429065902896  0.0968433397711834   F   F   F
  0.3869670579804989  0.8747210027318033  0.6030956540694774   F   F   F
  0.8911888449729730  0.8726543813946179  0.9019280223296775   F   F   F
  0.6094185792695015  0.3723840888363128  0.4038542259655458   F   F   F
  0.8905582151875393  0.6271675542861459  0.9020539260634166   F   F   F
  0.6094041022901209  0.1276315479534134  0.4037605891893747   F   F   F
  0.0831048349475765  0.0475109685477975  0.9435687042287597   F   F   F
  0.4176871806418063  0.5499813561623768  0.4438436836473443   F   F   F
  0.0831856777148303  0.4523523729842580  0.9438997465468049   F   F   F
  0.4182116171947641  0.9505271627590304  0.4446693585935577   F   F   F
  0.9171247169331167  0.9512718069811044  0.0561737279034205   F   F   F
  0.5827906879946028  0.4530925389524398  0.5556375829759830   F   F   F
  0.9173413997613409  0.5488456328287370  0.0565855780411937   F   F   F
  0.5826187119468287  0.0467912904197689  0.5553540539617146   F   F   F
  0.1296231040844802  0.0799627804154994  0.7634423203244225   F   F   F
  0.3713805715389924  0.5807279038530382  0.2623249302738841   F   F   F
  0.1296318253701898  0.4200410798835748  0.7636759413020187   F   F   F
  0.3710306856894974  0.9199361544716211  0.2629319534574108   F   F   F
  0.8710201519176834  0.9196028368816229  0.2367314304502557   F   F   F
  0.6292993944101113  0.4207916246772925  0.7356744224965155   F   F   F
  0.8713626048482652  0.5804791718471378  0.2374900436238292   F   F   F
  0.6292492851724560  0.0793042870953116  0.7352598947508895   F   F   F
  0.0747278597158711  0.9607638067166420  0.7919847621550034   F   F   F
  0.4241131313273669  0.4613752091790673  0.2948144036777691   F   F   F
  0.0748028995871124  0.5391836990524368  0.7923195950701611   F   F   F
  0.4241964469789892  0.0386462131336458  0.2945780170194396   F   F   F
  0.9248077689555814  0.0391348004589247  0.2067119060627078   F   F   F
  0.5730250382433582  0.5395395133105296  0.7075292341394857   F   F   F
  0.9246677977408950  0.4608033835361240  0.2067758124953869   F   F   F
  0.5730485280550184  0.9605034711495293  0.7075729163253470   F   F   F
  0.2161824121332003  0.1373904738735874  0.6463271447778780   F   F   F
  0.2829555018575789  0.6373499274724210  0.1476130723711364   F   F   F
  0.2161517510064428  0.3626744318723070  0.6464343906898762   F   F   F
  0.2838115890114565  0.8620019597797750  0.1479907583618285   F   F   F
  0.7838858741842074  0.8620017637962505  0.3527334516686125   F   F   F
  0.7150253360603145  0.3628167424777686  0.8534947758407938   F   F   F
  0.7834516696801188  0.6378668933143388  0.3528477728724368   F   F   F
  0.7148261493384283  0.1372886464544649  0.8532633160024901   F   F   F
  0.4968774060247014  0.8519773954596346  0.7116245370991408   F   F   F
  0.0036584267006603  0.3545747407892605  0.2132407109572441   F   F   F
  0.4972602054013748  0.6487184455714115  0.7137726024664630   F   F   F
  0.0035385368081577  0.1455500153788094  0.2131493366729131   F   F   F
  0.5037287630216625  0.1445781717231256  0.2864470147087275   F   F   F
  0.9968573765603281  0.6461275366380690  0.7860943766063855   F   F   F
  0.5037707510527198  0.3555116669135501  0.2864961434610791   F   F   F
  0.9974066266418049  0.8532305776970048  0.7858397894427043   F   F   F
  0.3803410392443638  0.8326238936919736  0.7904410602906893   F   F   F
  0.1210268688035399  0.3338110613837486  0.2872208120334179   F   F   F
  0.3798999206828881  0.6672090705722624  0.7902454497265978   F   F   F
  0.1209586482013023  0.1660553506375635  0.2869694551628612   F   F   F
  0.6210864063625010  0.1658884040414250  0.2130439895052163   F   F   F
  0.8797437462281579  0.6652897899217507  0.7108752887032139   F   F   F
  0.6211110157533284  0.3341538800550268  0.2131485949028544   F   F   F
  0.8800043158105737  0.8348791318135937  0.7108337066200718   F   F   F
  0.4235388691837869  0.7501021811780788  0.6454847186783965   F   F   F
  0.0746191832608716  0.2500230315661014  0.1491574075772419   F   F   F
  0.5737535633323603  0.2500033269389590  0.3499372146450668   F   F   F
  0.9245167196890449  0.7499208869039578  0.8488938300150366   F   F   F
  0.3168991060451418  0.8655502878851138  0.9559546505564782   F   F   F
  0.1831382099758727  0.3656193254218110  0.4546788161282862   F   F   F
  0.3163801417738412  0.6340655363998380  0.9555706480244410   F   F   F
  0.1830710617180671  0.1345150281137819  0.4545914900688217   F   F   F
  0.6830517762348904  0.1344874634880142  0.0452736917138168   F   F   F
  0.8159091830618834  0.6335454098131805  0.5444805013718579   F   F   F
  0.6830854472072687  0.3655253709567745  0.0454288807432022   F   F   F
  0.8161330478946311  0.8664294956816789  0.5445238200405811   F   F   F
  0.2501099362448969  0.8429192092182305  0.7886641467053863   F   F   F
  0.2513284304882717  0.3439160443049900  0.2888596437238746   F   F   F
  0.2496842813148845  0.6568824611379469  0.7882671872704208   F   F   F
  0.2512496259875334  0.1561531436267387  0.2887659973841181   F   F   F
  0.7514064122389215  0.1563514770940770  0.2107774734307739   F   F   F
  0.7493534254850402  0.6568046179879019  0.7111841222563555   F   F   F
  0.7514333991542230  0.3437018738677295  0.2109204239965408   F   F   F
  0.7494967783175142  0.8431382815172483  0.7111608729838537   F   F   F
  0.2965378994259140  0.7497631130517064  0.0485839262582743   F   F   F
  0.2037513614112356  0.2500402232570522  0.5473130572547689   F   F   F
  0.7036288451255430  0.2500227799147439  0.9524367183681051   F   F   F
  0.7969137177673034  0.7499811703219450  0.4537124556130152   F   F   F
  0.1961650351247712  0.8316781242315585  0.0075777740714358   F   F   F
  0.3039760542072045  0.3321511197779401  0.5063204852821102   F   F   F
  0.1957791242582445  0.6683455360588582  0.0070894850486951   F   F   F
  0.3039535270350342  0.1678850199576374  0.5061614664230731   F   F   F
  0.8037674365760594  0.1675499430433049  0.9919476301601620   F   F   F
  0.6954707357577092  0.6690985457284100  0.4923991273315096   F   F   F
  0.8038193000716305  0.3323998958156906  0.9923103515000236   F   F   F
  0.6956642426423869  0.8311201412607971  0.4919600048569066   F   F   F
  0.0924367136231083  0.7501230145312618  0.0220474559357271   F   F   F
  0.4070684857934594  0.2499810289984339  0.5234879823940233   F   F   F
  0.9068306617426174  0.2499858845960929  0.9771434341541791   F   F   F
  0.5915088103073316  0.7502486038428415  0.4785912863220076   F   F   F
  0.0816661748983591  0.8695539092599631  0.9347982731064803   F   F   F
  0.4196731292247478  0.3690835510139365  0.4362494260570955   F   F   F
  0.0809440811947866  0.6304860438094195  0.9353682050001026   F   F   F
  0.4196318579545562  0.1308483549065897  0.4362280688829117   F   F   F
  0.9187871414795694  0.1307480475178480  0.0643944961597001   F   F   F
  0.5809894110974838  0.6305405791474712  0.5646178470046053   F   F   F
  0.9189813415853791  0.3691962182345989  0.0643979391319860   F   F   F
  0.5813523566682690  0.8703514276719844  0.5635343604542911   F   F   F
  0.1233054874252488  0.8409565770786216  0.7481532415030756   F   F   F
  0.3782191667140111  0.3406282260943811  0.2495822814269246   F   F   F
  0.1227063062683627  0.6596303326876694  0.7491457382522100   F   F   F
  0.3781398319688947  0.1593484212036174  0.2495850342034558   F   F   F
  0.8780772199561611  0.1597428608575626  0.2513021010905376   F   F   F
  0.6226754110120112  0.6590398455140587  0.7512792997745379   F   F   F
  0.8781527669198397  0.3400969411418018  0.2511874583142415   F   F   F
  0.6224778388894876  0.8405501061483776  0.7499609904926174   F   F   F
  0.2012475313912532  0.7500530557671894  0.6663306463883600   F   F   F
  0.2996637301077030  0.2500277610362360  0.1677077677577756   F   F   F
  0.7990848778479602  0.2499825440223233  0.3330224582314472   F   F   F
  0.7006125149697198  0.7500147582683354  0.8329691475396572   F   F   F
  0.4243120677247703  0.0706248793323780  0.6882720414480872   F   F   F
  0.0760515629478533  0.5707141827737630  0.1887833199971851   F   F   F
  0.4243642501694112  0.4293781953153299  0.6883255931551702   F   F   F
  0.0758502485431904  0.9293722250553955  0.1885193660083928   F   F   F
  0.5759445282879696  0.9295151099709784  0.3102840366168635   F   F   F
  0.9246233627582825  0.4294307430317730  0.8116017276557059   F   F   F
  0.5761242863364586  0.5706873103235637  0.3109170475815333   F   F   F
  0.9246201416023538  0.0705567486414296  0.8113905219130189   F   F   F
  0.3223819734165474  0.0318316953936488  0.8430151480515420   F   F   F
  0.1780452314772205  0.5317164602638726  0.3432883448099062   F   F   F
  0.3224146420772769  0.4682209026483264  0.8430421287326908   F   F   F
  0.1777253992166195  0.9682391825656467  0.3431296372321242   F   F   F
  0.6781411732807570  0.9681542408453581  0.1566675069841281   F   F   F
  0.8222945580976031  0.4680597921700667  0.6571628257407198   F   F   F
  0.6784011481407290  0.5319538700143198  0.1569513425766544   F   F   F
  0.8222309627981090  0.0319692201244450  0.6570775164942972   F   F   F
  0.2779123087333701  0.0511264612777964  0.0613109493893447   F   F   F
  0.2226568316635706  0.5510577151876532  0.5612541371714030   F   F   F
  0.2780423512307522  0.4489808195105951  0.0614569707557564   F   F   F
  0.2228370894078537  0.9493411502978333  0.5606548995118530   F   F   F
  0.7225942433480199  0.9489261545016490  0.9381814406677123   F   F   F
  0.7778141510926559  0.4491288428941544  0.4387963766751781   F   F   F
  0.7227333495790305  0.5509907875996660  0.9386600761461779   F   F   F
  0.7777079553616204  0.0507975122443085  0.4386758489674847   F   F   F
  0.1224574189986996  0.0532732866075847  0.0483851064646856   F   F   F
  0.3779769887972222  0.5535711134250292  0.5484128788570217   F   F   F
  0.1226107360804676  0.4467220309073738  0.0486672413644982   F   F   F
  0.3772715446667974  0.9469521975858868  0.5481234463233449   F   F   F
  0.8781356107936986  0.9463629978076327  0.9509799307682272   F   F   F
  0.6224157232441314  0.4466922016762993  0.4511188640456680   F   F   F
  0.8780396312731398  0.5534298767382921  0.9515768464672476   F   F   F
  0.6222660347702487  0.0532503084769687  0.4508426119537319   F   F   F
  0.0728412340832634  0.0397062233897643  0.8238019586723624   F   F   F
  0.4277437962122690  0.5407555480855848  0.3241855554615896   F   F   F
  0.0728651157205249  0.4602342044834629  0.8241694721060924   F   F   F
  0.4275016813024166  0.9593392339754629  0.3248886168894813   F   F   F
  0.9273996399122169  0.9600603391716334  0.1757671232663824   F   F   F
  0.5722872311394767  0.4606056157916711  0.6753226260991951   F   F   F
  0.9275541845522710  0.5399426299954300  0.1762338123948481   F   F   F
  0.5722002755176163  0.0394245703525797  0.6750904917086089   F   F   F
  0.2016626826565684  0.0714697559756701  0.7134550092025691   F   F   F
  0.2988993987442186  0.5712898499085739  0.2141871586954238   F   F   F
  0.2016336523030233  0.4285870286521600  0.7135974393340589   F   F   F
  0.2988159041322191  0.9284613448476762  0.2141431977300456   F   F   F
  0.7988980926026557  0.9282070007432424  0.2863746900363324   F   F   F
  0.7012003299792298  0.4288186369106910  0.7861858612953654   F   F   F
  0.7990674709343182  0.5717379632341064  0.2865965737987679   F   F   F
  0.7010838455696202  0.0712665571672204  0.7859514996808130   F   F   F
  0.4223824010809736  0.8285865235248764  0.6870982268046006   F   F   F
  0.0769156502417161  0.3279886870119242  0.1860147788485307   F   F   F
  0.4228450936256465  0.6717779127104961  0.6878863225003755   F   F   F
  0.0768112818279434  0.1720160537428654  0.1858265876985072   F   F   F
  0.5767129546629590  0.1718671486741741  0.3139569590465925   F   F   F
  0.9232026008165164  0.6718485448870979  0.8126924183755762   F   F   F
  0.5767212789286447  0.3281510196691713  0.3140415784961021   F   F   F
  0.9235983370490857  0.8279753846758027  0.8124814352542202   F   F   F
  0.3174478068538633  0.8737082066217638  0.8351418803836239   F   F   F
  0.1833074541364965  0.3740495101119237  0.3339202901998917   F   F   F
  0.3169757885394944  0.6260745655530044  0.8347093686864469   F   F   F
  0.1832639004326140  0.1259627486727979  0.3338573048679194   F   F   F
  0.6834029271010706  0.1259062829963540  0.1659798546337825   F   F   F
  0.8167328436971601  0.6256935461621467  0.6652969504167885   F   F   F
  0.6834285715484469  0.3741454557802228  0.1661310163765606   F   F   F
  0.8168731216969647  0.8743513370124489  0.6653343656091621   F   F   F
  0.2729878079053449  0.8273413841631694  0.0402232889056151   F   F   F
  0.2271237881017711  0.3276058948125495  0.5390136658916944   F   F   F
  0.2725905904745929  0.6723226371068520  0.0399789503749020   F   F   F
  0.2271202873219309  0.1724799435127480  0.5389173023724467   F   F   F
  0.7267472501634842  0.1723610876501098  0.9604303881170466   F   F   F
  0.7725005030328234  0.6726622927779715  0.4605336933906443   F   F   F
  0.7268216124557796  0.3276504608084423  0.9606404345553159   F   F   F
  0.7727445703633933  0.8273990008935215  0.4604630926681210   F   F   F
  0.1171840217013269  0.8278862020459172  0.0241166218038060   F   F   F
  0.3827581189327915  0.3278378273251619  0.5246491080329818   F   F   F
  0.1168494011417138  0.6722604043061438  0.0242340334766951   F   F   F
  0.3827275409154680  0.1721328363621524  0.5246189896410982   F   F   F
  0.8826748189633378  0.1720728385653771  0.9752648999179740   F   F   F
  0.6165276832024631  0.6723542020721283  0.4754554532645443   F   F   F
  0.8827059240094073  0.3279195982384806  0.9753863353167560   F   F   F
  0.6167281171480923  0.8280796881345083  0.4746703010490094   F   F   F
  0.0697436525456894  0.8809095933453364  0.8155575905414238   F   F   F
  0.4310362713513314  0.3815536136468793  0.3171561254436810   F   F   F
  0.0693365577813339  0.6190038573277405  0.8161020941738855   F   F   F
  0.4310160210270055  0.1184563301937942  0.3171106125946963   F   F   F
  0.9308107186515571  0.1189823214311971  0.1834600447849795   F   F   F
  0.5691021314301778  0.6193848250444844  0.6837777164826093   F   F   F
  0.9308747943928424  0.3809922836910218  0.1834914197417490   F   F   F
  0.5690581191985302  0.8808116709005986  0.6827566779656564   F   F   F
  0.1960954497351821  0.8278985014543991  0.7017876221286343   F   F   F
  0.3055343881691073  0.3279008594260304  0.2027792002935414   F   F   F
  0.1953531857408279  0.6723028211359150  0.7020175935184554   F   F   F
  0.3054784587058776  0.1721382358153463  0.2027155232773481   F   F   F
  0.8051754997750677  0.1721935395061607  0.2975943809345409   F   F   F
  0.6953637809019426  0.6721641591840282  0.7977971054067083   F   F   F
  0.8052597360911449  0.3277658206369907  0.2976066237846595   F   F   F
  0.6950976223352185  0.8277329763631371  0.7972167062021924   F   F   F
  0.3620651448599261  0.7538373383809045  0.2728579121267458   F   F   F
  0.3876073298425737  0.7488146570016454  0.4332149627345743   F   F   F
  0.4318523992556180  0.7503540268719320  0.1456038166006124   T   T   T
  0.4600153144849273  0.7536460027073133  0.2971751487674155   T   T   T
  0.4578955581741653  0.7957528216907264  0.1198827866342711   T   T   T
  0.3848415719936398  0.7517260016955802  0.0931718810755129   T   T   T
  0.4558918889480168  0.7039443577700979  0.1193828979170704   T   T   T
  0.4895579264342444  0.7493498928600033  0.3529178602914655   T   T   T
 
  0.00000000E+00  0.00000000E+00  0.00000000E+00
  0.00000000E+00  0.00000000E+00  0.00000000E+00
  0.00000000E+00  0.00000000E+00  0.00000000E+00
  0.00000000E+00  0.00000000E+00  0.00000000E+00
  0.00000000E+00  0.00000000E+00  0.00000000E+00
  0.00000000E+00  0.00000000E+00  0.00000000E+00
  0.00000000E+00  0.00000000E+00  0.00000000E+00
  0.00000000E+00  0.00000000E+00  0.00000000E+00
  0.00000000E+00  0.00000000E+00  0.00000000E+00
  0.00000000E+00  0.00000000E+00  0.00000000E+00
  0.00000000E+00  0.00000000E+00  0.00000000E+00
  0.00000000E+00  0.00000000E+00  0.00000000E+00
  0.00000000E+00  0.00000000E+00  0.00000000E+00
  0.00000000E+00  0.00000000E+00  0.00000000E+00
  0.00000000E+00  0.00000000E+00  0.00000000E+00
  0.00000000E+00  0.00000000E+00  0.00000000E+00
  0.00000000E+00  0.00000000E+00  0.00000000E+00
  0.00000000E+00  0.00000000E+00  0.00000000E+00
  0.00000000E+00  0.00000000E+00  0.00000000E+00
  0.00000000E+00  0.00000000E+00  0.00000000E+00
  0.00000000E+00  0.00000000E+00  0.00000000E+00
  0.00000000E+00  0.00000000E+00  0.00000000E+00
  0.00000000E+00  0.00000000E+00  0.00000000E+00
  0.00000000E+00  0.00000000E+00  0.00000000E+00
  0.00000000E+00  0.00000000E+00  0.00000000E+00
  0.00000000E+00  0.00000000E+00  0.00000000E+00
  0.00000000E+00  0.00000000E+00  0.00000000E+00
  0.00000000E+00  0.00000000E+00  0.00000000E+00
  0.00000000E+00  0.00000000E+00  0.00000000E+00
  0.00000000E+00  0.00000000E+00  0.00000000E+00
  0.00000000E+00  0.00000000E+00  0.00000000E+00
  0.00000000E+00  0.00000000E+00  0.00000000E+00
  0.00000000E+00  0.00000000E+00  0.00000000E+00
  0.00000000E+00  0.00000000E+00  0.00000000E+00
  0.00000000E+00  0.00000000E+00  0.00000000E+00
  0.00000000E+00  0.00000000E+00  0.00000000E+00
  0.00000000E+00  0.00000000E+00  0.00000000E+00
  0.00000000E+00  0.00000000E+00  0.00000000E+00
  0.00000000E+00  0.00000000E+00  0.00000000E+00
  0.00000000E+00  0.00000000E+00  0.00000000E+00
  0.00000000E+00  0.00000000E+00  0.00000000E+00
  0.00000000E+00  0.00000000E+00  0.00000000E+00
  0.00000000E+00  0.00000000E+00  0.00000000E+00
  0.00000000E+00  0.00000000E+00  0.00000000E+00
  0.00000000E+00  0.00000000E+00  0.00000000E+00
  0.00000000E+00  0.00000000E+00  0.00000000E+00
  0.00000000E+00  0.00000000E+00  0.00000000E+00
  0.00000000E+00  0.00000000E+00  0.00000000E+00
  0.00000000E+00  0.00000000E+00  0.00000000E+00
  0.00000000E+00  0.00000000E+00  0.00000000E+00
  0.00000000E+00  0.00000000E+00  0.00000000E+00
  0.00000000E+00  0.00000000E+00  0.00000000E+00
  0.00000000E+00  0.00000000E+00  0.00000000E+00
  0.00000000E+00  0.00000000E+00  0.00000000E+00
  0.00000000E+00  0.00000000E+00  0.00000000E+00
  0.00000000E+00  0.00000000E+00  0.00000000E+00
  0.00000000E+00  0.00000000E+00  0.00000000E+00
  0.00000000E+00  0.00000000E+00  0.00000000E+00
  0.00000000E+00  0.00000000E+00  0.00000000E+00
  0.00000000E+00  0.00000000E+00  0.00000000E+00
  0.00000000E+00  0.00000000E+00  0.00000000E+00
  0.00000000E+00  0.00000000E+00  0.00000000E+00
  0.00000000E+00  0.00000000E+00  0.00000000E+00
  0.00000000E+00  0.00000000E+00  0.00000000E+00
  0.00000000E+00  0.00000000E+00  0.00000000E+00
  0.00000000E+00  0.00000000E+00  0.00000000E+00
  0.00000000E+00  0.00000000E+00  0.00000000E+00
  0.00000000E+00  0.00000000E+00  0.00000000E+00
  0.00000000E+00  0.00000000E+00  0.00000000E+00
  0.00000000E+00  0.00000000E+00  0.00000000E+00
  0.00000000E+00  0.00000000E+00  0.00000000E+00
  0.00000000E+00  0.00000000E+00  0.00000000E+00
  0.00000000E+00  0.00000000E+00  0.00000000E+00
  0.00000000E+00  0.00000000E+00  0.00000000E+00
  0.00000000E+00  0.00000000E+00  0.00000000E+00
  0.00000000E+00  0.00000000E+00  0.00000000E+00
  0.00000000E+00  0.00000000E+00  0.00000000E+00
  0.00000000E+00  0.00000000E+00  0.00000000E+00
  0.00000000E+00  0.00000000E+00  0.00000000E+00
  0.00000000E+00  0.00000000E+00  0.00000000E+00
  0.00000000E+00  0.00000000E+00  0.00000000E+00
  0.00000000E+00  0.00000000E+00  0.00000000E+00
  0.00000000E+00  0.00000000E+00  0.00000000E+00
  0.00000000E+00  0.00000000E+00  0.00000000E+00
  0.00000000E+00  0.00000000E+00  0.00000000E+00
  0.00000000E+00  0.00000000E+00  0.00000000E+00
  0.00000000E+00  0.00000000E+00  0.00000000E+00
  0.00000000E+00  0.00000000E+00  0.00000000E+00
  0.00000000E+00  0.00000000E+00  0.00000000E+00
  0.00000000E+00  0.00000000E+00  0.00000000E+00
  0.00000000E+00  0.00000000E+00  0.00000000E+00
  0.00000000E+00  0.00000000E+00  0.00000000E+00
  0.00000000E+00  0.00000000E+00  0.00000000E+00
  0.00000000E+00  0.00000000E+00  0.00000000E+00
  0.00000000E+00  0.00000000E+00  0.00000000E+00
  0.00000000E+00  0.00000000E+00  0.00000000E+00
  0.00000000E+00  0.00000000E+00  0.00000000E+00
  0.00000000E+00  0.00000000E+00  0.00000000E+00
  0.00000000E+00  0.00000000E+00  0.00000000E+00
  0.00000000E+00  0.00000000E+00  0.00000000E+00
  0.00000000E+00  0.00000000E+00  0.00000000E+00
  0.00000000E+00  0.00000000E+00  0.00000000E+00
  0.00000000E+00  0.00000000E+00  0.00000000E+00
  0.00000000E+00  0.00000000E+00  0.00000000E+00
  0.00000000E+00  0.00000000E+00  0.00000000E+00
  0.00000000E+00  0.00000000E+00  0.00000000E+00
  0.00000000E+00  0.00000000E+00  0.00000000E+00
  0.00000000E+00  0.00000000E+00  0.00000000E+00
  0.00000000E+00  0.00000000E+00  0.00000000E+00
  0.00000000E+00  0.00000000E+00  0.00000000E+00
  0.00000000E+00  0.00000000E+00  0.00000000E+00
  0.00000000E+00  0.00000000E+00  0.00000000E+00
  0.00000000E+00  0.00000000E+00  0.00000000E+00
  0.00000000E+00  0.00000000E+00  0.00000000E+00
  0.00000000E+00  0.00000000E+00  0.00000000E+00
  0.00000000E+00  0.00000000E+00  0.00000000E+00
  0.00000000E+00  0.00000000E+00  0.00000000E+00
  0.00000000E+00  0.00000000E+00  0.00000000E+00
  0.00000000E+00  0.00000000E+00  0.00000000E+00
  0.00000000E+00  0.00000000E+00  0.00000000E+00
  0.00000000E+00  0.00000000E+00  0.00000000E+00
  0.00000000E+00  0.00000000E+00  0.00000000E+00
  0.00000000E+00  0.00000000E+00  0.00000000E+00
  0.00000000E+00  0.00000000E+00  0.00000000E+00
  0.00000000E+00  0.00000000E+00  0.00000000E+00
  0.00000000E+00  0.00000000E+00  0.00000000E+00
  0.00000000E+00  0.00000000E+00  0.00000000E+00
  0.00000000E+00  0.00000000E+00  0.00000000E+00
  0.00000000E+00  0.00000000E+00  0.00000000E+00
  0.00000000E+00  0.00000000E+00  0.00000000E+00
  0.00000000E+00  0.00000000E+00  0.00000000E+00
  0.00000000E+00  0.00000000E+00  0.00000000E+00
  0.00000000E+00  0.00000000E+00  0.00000000E+00
  0.00000000E+00  0.00000000E+00  0.00000000E+00
  0.00000000E+00  0.00000000E+00  0.00000000E+00
  0.00000000E+00  0.00000000E+00  0.00000000E+00
  0.00000000E+00  0.00000000E+00  0.00000000E+00
  0.00000000E+00  0.00000000E+00  0.00000000E+00
  0.00000000E+00  0.00000000E+00  0.00000000E+00
  0.00000000E+00  0.00000000E+00  0.00000000E+00
  0.00000000E+00  0.00000000E+00  0.00000000E+00
  0.00000000E+00  0.00000000E+00  0.00000000E+00
  0.00000000E+00  0.00000000E+00  0.00000000E+00
  0.00000000E+00  0.00000000E+00  0.00000000E+00
  0.00000000E+00  0.00000000E+00  0.00000000E+00
  0.00000000E+00  0.00000000E+00  0.00000000E+00
  0.00000000E+00  0.00000000E+00  0.00000000E+00
  0.00000000E+00  0.00000000E+00  0.00000000E+00
  0.00000000E+00  0.00000000E+00  0.00000000E+00
  0.00000000E+00  0.00000000E+00  0.00000000E+00
  0.00000000E+00  0.00000000E+00  0.00000000E+00
  0.00000000E+00  0.00000000E+00  0.00000000E+00
  0.00000000E+00  0.00000000E+00  0.00000000E+00
  0.00000000E+00  0.00000000E+00  0.00000000E+00
  0.00000000E+00  0.00000000E+00  0.00000000E+00
  0.00000000E+00  0.00000000E+00  0.00000000E+00
  0.00000000E+00  0.00000000E+00  0.00000000E+00
  0.00000000E+00  0.00000000E+00  0.00000000E+00
  0.00000000E+00  0.00000000E+00  0.00000000E+00
  0.00000000E+00  0.00000000E+00  0.00000000E+00
  0.00000000E+00  0.00000000E+00  0.00000000E+00
  0.00000000E+00  0.00000000E+00  0.00000000E+00
  0.00000000E+00  0.00000000E+00  0.00000000E+00