O  Si Ru C  O  H                        
   1.00000000000000     
    20.3096463179830877    0.0000000000000000    0.0000000000000000
     0.0000000000000000   19.8625212307842212    0.0000000000000000
     0.0000000000000000    0.0000000000000000   13.3711533343531652
   O    Si   Ru   C    O    H 
   192    96     4     1     2     1
Selective dynamics
Direct
  0.5030219167759711  0.0548461875679251  0.7109885588016525   F   F   F
  0.9938937966979324  0.5688180105077834  0.2134779456062077   F   F   F
  0.5058956248501190  0.4361552484777675  0.7140707746348838   F   F   F
  0.9969307407971257  0.9367893372251643  0.2107947719995664   F   F   F
  0.4954142739342201  0.9416262032649863  0.2852596823853728   T   T   T
  0.0061283812685033  0.4303203659587496  0.7907562439232407   F   F   F
  0.4952344598964643  0.5665598022628070  0.2927284832163182   T   T   T
  0.0027339203094314  0.0605959185820666  0.7849661673386237   F   F   F
  0.3860705436552152  0.0662908389672339  0.7898483222843495   F   F   F
  0.1076869203592934  0.5610789411271833  0.3065726423189973   T   T   T
  0.3918973571895847  0.4397638812510323  0.8065636103196709   F   F   F
  0.1152096242037215  0.9332678806095203  0.2913670841075111   T   T   T
  0.6130001824034843  0.9353431678383672  0.2055928965490280   T   T   T
  0.8919509899701055  0.4400130574133243  0.6987715011187490   F   F   F
  0.6083639244157745  0.5580543824385020  0.1972539613090448   T   T   T
  0.8853584736240236  0.0660009794866809  0.7049171348436332   F   F   F
  0.4150774022189836  0.1337363939151075  0.6252671151390388   F   F   F
  0.0974600926920617  0.6336586349093245  0.1417171936435743   T   T   T
  0.4044305306972689  0.3699867360294036  0.6381449100672327   F   F   F
  0.0903829516393115  0.8625635556639010  0.1301099908305157   T   T   T
  0.5872659945111370  0.8647744548851007  0.3678886217160910   T   T   T
  0.9012951326334360  0.3677353588413155  0.8635668509875813   F   F   F
  0.6017523237866379  0.6276980458492308  0.3643166904740671   T   T   T
  0.9112861698241019  0.1385584644683746  0.8654262326200737   F   F   F
  0.4009465788612658  0.0003366559156817  0.6165760238177427   F   F   F
  0.0914120808619359  0.4995622485105713  0.1308651115583501   F   F   F
  0.4063484930788377  0.5049088294740187  0.6354759932715481   F   F   F
  0.0960856730564345  0.9967852938634643  0.1172230984733190   T   T   T
  0.5953749892491160  0.9973828252402452  0.3815787932872080   T   T   T
  0.9106315066055970  0.5015670825534002  0.8744907445373258   F   F   F
  0.5925023563222496  0.4944792789522339  0.3715287391515290   F   F   F
  0.9022199965761573  0.0052555491557555  0.8816219983168239   F   F   F
  0.3236763346367226  0.0390849954636465  0.9596190254799808   F   F   F
  0.1782894801379404  0.5367034537392040  0.4693572925717821   T   T   T
  0.3222850025971056  0.4629383710016981  0.9699889858142186   F   F   F
  0.1745779288072112  0.9645701407213617  0.4614468707923900   T   T   T
  0.6755816477808096  0.9644119496889090  0.0375631872379998   F   F   F
  0.8220864981557554  0.4623019861829079  0.5348732404526615   F   F   F
  0.6788020528671694  0.5351181818680715  0.0339731601972346   F   F   F
  0.8232918366550948  0.0363859314931716  0.5369555647113415   F   F   F
  0.3189914164044224  0.9538389203560463  0.8030826384337261   T   T   T
  0.1828026613875764  0.4530447170232321  0.3111307768702076   F   F   F
  0.3144010050816216  0.5474500544642044  0.8144179697101486   T   T   T
  0.1764617240531692  0.0486817771329200  0.3034075776822860   F   F   F
  0.6817394605176474  0.0470454934209812  0.1975807380997239   F   F   F
  0.8143619494048266  0.5462729297259372  0.6929214013780864   F   F   F
  0.6856148074958668  0.4519167628940082  0.1932071815038725   F   F   F
  0.8172557604827233  0.9535276769460310  0.6964557413526791   F   F   F
  0.2548607853788667  0.0697059105646929  0.7998962969530083   F   F   F
  0.2385230183033296  0.5731766593068055  0.3031521684666691   T   T   T
  0.2616163031536658  0.4264322750731395  0.8029658722338908   F   F   F
  0.2478610178476816  0.9404137133115641  0.3031990600246567   T   T   T
  0.7444369052564355  0.9307159502170350  0.1966825835338923   F   F   F
  0.7611812312371882  0.4255297013006967  0.7005930661585964   F   F   F
  0.7394293504515304  0.5723968614334041  0.1994352941752950   F   F   F
  0.7538743830334411  0.0693368307397648  0.6961347307241752   F   F   F
  0.2935907023098352  0.1295622878583629  0.0976777371066220   F   F   F
  0.2049464826064449  0.6219357440440918  0.6157875701299126   T   T   T
  0.2932368320357313  0.3796491243975311  0.1163762107497988   F   F   F
  0.1965072033159779  0.8753485229911312  0.6043638972576107   T   T   T
  0.7030199906958359  0.8755265755302872  0.8968801213865163   F   F   F
  0.7956778902170640  0.3771446349440026  0.3887123650913367   F   F   F
  0.7055654889811933  0.6216571650586502  0.8900536077898664   F   F   F
  0.7978384868410231  0.1240201280495015  0.3938602504739350   F   F   F
  0.2003194207438881  0.0480133529093223  0.0248260125384050   F   F   F
  0.3010040852149053  0.5484495410755394  0.5357685557695975   T   T   T
  0.1994168682896600  0.4574177743134626  0.0360342649242611   F   F   F
  0.2968080857294513  0.9470032586163631  0.5287933583322897   T   T   T
  0.7983851310139229  0.9529093587660142  0.9728089619277682   F   F   F
  0.6993693347324594  0.4515887201150264  0.4686903531270872   F   F   F
  0.8011718841642832  0.5438844910388170  0.9647965349887286   F   F   F
  0.7012190033848285  0.0479768842980590  0.4694406562851654   F   F   F
  0.2947091350021438  0.0008717877675224  0.1434675908507685   F   F   F
  0.2086500990079045  0.4909310820499329  0.6483418020074723   F   F   F
  0.2937497253626447  0.5108228139304529  0.1491163022236606   F   F   F
  0.2065871190241211  0.0049271126571142  0.6420673287068794   F   F   F
  0.7060343453906555  0.0056847524033827  0.8556015044883623   F   F   F
  0.7917636361775564  0.5083251590023323  0.3556352680996895   F   F   F
  0.7060479882548378  0.4907635822103842  0.8530727305260370   F   F   F
  0.7944050248007812  0.9936956690758123  0.3551952969300771   F   F   F
  0.1092684659389747  0.1304696671311660  0.0990796631821311   F   F   F
  0.3925568591873856  0.6344494395037051  0.6032905980543977   T   T   T
  0.1100096487961792  0.3689727465953467  0.0991274144746015   F   F   F
  0.3906948582647878  0.8668931049165519  0.6018561866894754   T   T   T
  0.8885015920293000  0.8715936971463023  0.8942108245790905   F   F   F
  0.6100512307239683  0.3639304705363102  0.4014410741104300   F   F   F
  0.8906687961864961  0.6323115678928843  0.9003059014744395   F   F   F
  0.6103918537151856  0.1306641015050758  0.3951140152193915   F   F   F
  0.0816241107146993  0.0546683855452983  0.9422816270915035   F   F   F
  0.4205712240323375  0.5483992893074751  0.4528357749405743   T   T   T
  0.0818887957015733  0.4509270726163876  0.9491296043751305   F   F   F
  0.4135741561338909  0.9414867510268436  0.4406728609728052   T   T   T
  0.9173365549630859  0.9437625292965492  0.0541544196464372   F   F   F
  0.5810462649621115  0.4445094042487341  0.5526524453408044   F   F   F
  0.9169692069558621  0.5537452167740753  0.0551219437514519   F   F   F
  0.5835136938986025  0.0581106726361824  0.5550008316085737   F   F   F
  0.1283920876083542  0.0780945939782072  0.7590954286687790   F   F   F
  0.3675609424612812  0.5808612975588751  0.2745956569165691   T   T   T
  0.1334544540808267  0.4191884064218456  0.7722630546641724   F   F   F
  0.3717604987878620  0.9214307546083352  0.2511322431439288   T   T   T
  0.8710284594215665  0.9196968581495142  0.2374826981147180   F   F   F
  0.6327393016155867  0.4162746520556908  0.7307264628348946   F   F   F
  0.8669578796510891  0.5819463238134048  0.2346949969655583   F   F   F
  0.6276238057634842  0.0791576187059917  0.7400974704835548   F   F   F
  0.0846833819779127  0.9568778111515659  0.8056963133673218   T   T   T
  0.4158900576007767  0.4599816032013067  0.3051486684992781   F   F   F
  0.0819101432136157  0.5396237393905813  0.7992965801769540   T   T   T
  0.4108150758446527  0.0425469562277243  0.3100261223800374   F   F   F
  0.9154264304770479  0.0409041832259120  0.1923766671616605   F   F   F
  0.5895889629287769  0.5386939016262718  0.6942219655624868   T   T   T
  0.9158174449620873  0.4612676918570742  0.2001544616488999   F   F   F
  0.5908124185476011  0.9568689598670048  0.6855870529304492   T   T   T
  0.2139646218813027  0.1395277443509571  0.6457339192986851   F   F   F
  0.2868896559066164  0.6445208765735633  0.1544475036466812   T   T   T
  0.2137150846519162  0.3567663849162059  0.6520774866142602   F   F   F
  0.2760720647084743  0.8679212984271973  0.1432330059922649   T   T   T
  0.7830198740398302  0.8598327394153955  0.3506778121665590   F   F   F
  0.7147192569278644  0.3564015061239800  0.8516031366781078   F   F   F
  0.7823615995470803  0.6421374822965689  0.3523063707167182   F   F   F
  0.7160884871365027  0.1398147600816202  0.8513629894559571   F   F   F
  0.4955082931154293  0.8666017385442859  0.7209659164701899   T   T   T
  0.0026254273645137  0.3615096809914391  0.2153508219637388   F   F   F
  0.5004227733640298  0.6351139201205557  0.7188699950101565   T   T   T
  0.0049600637063207  0.1378823570435230  0.2196306668012298   F   F   F
  0.5047109101508624  0.1338380350660628  0.2755399485317938   F   F   F
  0.0001371126356166  0.6436358958516628  0.7885946408501779   T   T   T
  0.5025922885336271  0.3611993123721149  0.2840919578486094   F   F   F
  0.9937877574828278  0.8619398859819327  0.7751185834071848   F   F   F
  0.3790902370501299  0.8352439816216523  0.7948627390037403   T   T   T
  0.1179056170610622  0.3365154859573636  0.2924293763879078   F   F   F
  0.3860391569610687  0.6592565191835276  0.8001663538627490   T   T   T
  0.1223057105959384  0.1691045100118345  0.2894164905504084   F   F   F
  0.6206459342382118  0.1652930569152247  0.2030640906941699   F   F   F
  0.8855860450022348  0.6593749903338377  0.7048546058810743   F   F   F
  0.6177403585612566  0.3364180660162077  0.2067079346123535   F   F   F
  0.8765794747597084  0.8347871473963124  0.7028253355919958   F   F   F
  0.4379870145124890  0.7498680888464004  0.6744797107503170   T   T   T
  0.0665280407444442  0.2504470425016621  0.1588728488921234   F   F   F
  0.5645556189665797  0.2479573817140022  0.3337983969611358   F   F   F
  0.9287534144999015  0.7515005864185014  0.8359024295799458   F   F   F
  0.3092954980567903  0.8684890614597494  0.9530748588222636   T   T   T
  0.1821165850865114  0.3653894682599557  0.4597442814616244   F   F   F
  0.3159492130963075  0.6368988916081674  0.9618316070781591   T   T   T
  0.1877051242282590  0.1344703670007164  0.4526120673937797   F   F   F
  0.6906223393798285  0.1294402425146401  0.0444076422488209   F   F   F
  0.8137267226771883  0.6328994816105293  0.5441421069392050   F   F   F
  0.6845524116078110  0.3659946182933140  0.0436902448533871   F   F   F
  0.8055005711436252  0.8708038267005023  0.5442723589676035   F   F   F
  0.2487589356379959  0.8425905878363932  0.7813629772536448   T   T   T
  0.2482776400908691  0.3384751143455631  0.2940508855943733   F   F   F
  0.2562583684836501  0.6650257876950760  0.7888044469937853   T   T   T
  0.2529393265911324  0.1562871775448329  0.2840879437192854   F   F   F
  0.7510621665232691  0.1596115867181354  0.2145034364513805   F   F   F
  0.7555249387965262  0.6639334997052373  0.7158127942893557   F   F   F
  0.7479634246855937  0.3360898656584368  0.2121736015414371   F   F   F
  0.7462725649585451  0.8417126331382789  0.7148502892317126   F   F   F
  0.2873242770202856  0.7537033517714365  0.0465256567933648   T   T   T
  0.2172356796242454  0.2496284188398121  0.5393517004155370   F   F   F
  0.7093042434657590  0.2481663155049461  0.9622036977024564   F   F   F
  0.7942972189308080  0.7513231975469310  0.4609015584265705   F   F   F
  0.1879071654243101  0.8359557836426015  0.0033665175918952   T   T   T
  0.3062946197896679  0.3465410019493191  0.5118574732369439   F   F   F
  0.1939101101244439  0.6615939492859771  0.0149027612926419   T   T   T
  0.3096694477446675  0.1561121521065516  0.5118617030806121   F   F   F
  0.8101108637040042  0.1637914435004291  0.9860500675916910   F   F   F
  0.6929123795215517  0.6696605016814914  0.4925935632813960   F   F   F
  0.8062448346801716  0.3366665924852512  0.9914791106070879   F   F   F
  0.6886160972192599  0.8290511130366340  0.4814063222169409   F   F   F
  0.0926945646976289  0.7461256526111371  0.0380108687581496   T   T   T
  0.3982725593922609  0.2530474727178671  0.5471787075555241   F   F   F
  0.9072568478086964  0.2532978284297513  0.9619253827680581   F   F   F
  0.5869882726568791  0.7456265554974314  0.4498776324970675   T   T   T
  0.0678925069584758  0.8572400344476264  0.9355292918822538   T   T   T
  0.4262127446029496  0.3634992185609889  0.4426365878724496   F   F   F
  0.0771284314810460  0.6286573636360213  0.9461493022253422   T   T   T
  0.4266627836391450  0.1492970828241056  0.4291522301522761   F   F   F
  0.9275135876326885  0.1402384020402181  0.0619417363240302   F   F   F
  0.5757332584869914  0.6350239298495317  0.5593023782438036   T   T   T
  0.9239731090090899  0.3686363824358594  0.0587617462970158   F   F   F
  0.5736674976555564  0.8526491468303001  0.5658284359145418   T   T   T
  0.1201281682774782  0.8338204240012225  0.7551055032106316   T   T   T
  0.3761262934644662  0.3373585743842824  0.2606990216219103   F   F   F
  0.1273676268193416  0.6620154655069758  0.7670231087118349   T   T   T
  0.3796906615273983  0.1625823938784237  0.2423319042257077   F   F   F
  0.8790909889168077  0.1628039735761604  0.2461253697631491   F   F   F
  0.6266748175523925  0.6621496908443979  0.7402046825049553   T   T   T
  0.8764143967161786  0.3378253727498901  0.2408053456132322   F   F   F
  0.6194234237829336  0.8353692226094515  0.7523928040055554   T   T   T
  0.1986314966705894  0.7490165222027075  0.6631012619269139   T   T   T
  0.2990251524596701  0.2525197466252962  0.1641946201377209   F   F   F
  0.8025983455757597  0.2501129328049032  0.3381666924228384   F   F   F
  0.6993030177096031  0.7493781480862935  0.8405365562802700   F   F   F
  0.4257882959985153  0.0631200877235187  0.6841960696975846   F   F   F
  0.0727239430556095  0.5654835680582844  0.1971319831913179   T   T   T
  0.4269723200364623  0.4376707500233721  0.6970710641749847   F   F   F
  0.0749148668849165  0.9330784852508461  0.1865554319837275   T   T   T
  0.5729389825590349  0.9353533043535447  0.3104597927753475   T   T   T
  0.9273966072424216  0.4352512401277906  0.8077980639826876   F   F   F
  0.5740217166004578  0.5612473749925448  0.3069618213197522   T   T   T
  0.9252287840629592  0.0671305760812260  0.8103093289461540   F   F   F
  0.3209778071766536  0.0321505307863035  0.8387431159122301   F   F   F
  0.1769206431807172  0.5310498902547359  0.3484084755482933   T   T   T
  0.3225656094406588  0.4691970664577667  0.8493128648219539   F   F   F
  0.1783528615013500  0.9706620870589217  0.3409124527822318   T   T   T
  0.6787285798067302  0.9693753001917358  0.1584334140476287   F   F   F
  0.8223729918770246  0.4684696383413396  0.6557599819813191   F   F   F
  0.6780609553677337  0.5294746977815308  0.1547970256143003   F   F   F
  0.8199796084045303  0.0313261844507196  0.6578191282008348   F   F   F
  0.2775116750688014  0.0546209785447402  0.0561246842288838   F   F   F
  0.2233041453084088  0.5496577163088977  0.5677202236953720   T   T   T
  0.2767111911803894  0.4527763687271644  0.0687973184828579   F   F   F
  0.2193067438814029  0.9471075787315747  0.5585723961738396   T   T   T
  0.7212531054286231  0.9495809624016260  0.9401384056273585   F   F   F
  0.7767912836494162  0.4496717482141150  0.4363650357279596   F   F   F
  0.7234755773045691  0.5479733310745871  0.9349906262634420   F   F   F
  0.7786603976803121  0.0505866124916068  0.4383209460967734   F   F   F
  0.1220940393177941  0.0576387320505845  0.0466628560347502   F   F   F
  0.3790951864453930  0.5584801889333114  0.5547422240133812   T   T   T
  0.1213009935213876  0.4443108066953059  0.0539840000324148   F   F   F
  0.3749562964896337  0.9384833121064184  0.5470838123689710   T   T   T
  0.8764204766866044  0.9433070245068933  0.9500103664304334   F   F   F
  0.6213515494100506  0.4387361609842344  0.4483728766297475   F   F   F
  0.8793824198316642  0.5578342818313047  0.9484918813626280   F   F   F
  0.6230223843840861  0.0586621751685641  0.4496779581470420   F   F   F
  0.0744900423354409  0.0371558294415308  0.8240355958459489   F   F   F
  0.4246118453526909  0.5394847382629611  0.3317583676948709   T   T   T
  0.0759050018467065  0.4604811359825405  0.8289214250034220   F   F   F
  0.4228054641620741  0.9623272198766278  0.3242747946086134   T   T   T
  0.9251076834604746  0.9607688561368803  0.1724501356025385   F   F   F
  0.5770856735129541  0.4591424537481501  0.6719829705662974   F   F   F
  0.9234526734777830  0.5409479829046973  0.1747106620580823   F   F   F
  0.5761280339978185  0.0369550544652100  0.6718882752718400   F   F   F
  0.2010403318350455  0.0720122919566961  0.7103395896183073   F   F   F
  0.2966230547460468  0.5767534938506710  0.2202551634224379   T   T   T
  0.2044718955300979  0.4243853501249291  0.7181956721495482   F   F   F
  0.2965675504004249  0.9325870204762138  0.2093770197432047   T   T   T
  0.7983637488043769  0.9268941439739038  0.2860303849380870   F   F   F
  0.7036986004431114  0.4233110755154001  0.7848737779827530   F   F   F
  0.7951863158223418  0.5751116616583332  0.2862380460677585   F   F   F
  0.7008543197813992  0.0726939905854991  0.7868735139048368   F   F   F
  0.4257411104062941  0.8299350559878949  0.6965486306268140   T   T   T
  0.0742321574068967  0.3291227919459487  0.1909263067494535   F   F   F
  0.4298769501719714  0.6706381812281816  0.7009202884978951   T   T   T
  0.0753245184302571  0.1719642738565099  0.1909524077118263   F   F   F
  0.5745682647169943  0.1696553687426743  0.3025227942890467   F   F   F
  0.9264687810316445  0.6719379406026178  0.8081033673370115   F   F   F
  0.5735216497706617  0.3272426650101607  0.3071577223565143   F   F   F
  0.9223545805895981  0.8298808725804747  0.8026654484564517   F   F   F
  0.3136452170894138  0.8748819648737782  0.8324149724252528   T   T   T
  0.1823691470615358  0.3734492718300757  0.3387433502953030   F   F   F
  0.3176571371496731  0.6270513810858385  0.8415200812110032   T   T   T
  0.1851106991292824  0.1275475629615812  0.3319466640946231   F   F   F
  0.6860593882759431  0.1257703970196289  0.1653773742964333   F   F   F
  0.8176342921106823  0.6257445042058336  0.6649877157448714   F   F   F
  0.6837239486331228  0.3725208104472841  0.1646725697123799   F   F   F
  0.8114212397675828  0.8748321845265536  0.6650983202521203   F   F   F
  0.2645995708826560  0.8313508874951397  0.0370201476434486   T   T   T
  0.2302590746223316  0.3295435221428207  0.5410449599514280   F   F   F
  0.2703054688816557  0.6744587749728903  0.0448138401332857   T   T   T
  0.2327093871604049  0.1702119960996527  0.5377307600169772   F   F   F
  0.7322184470329631  0.1704461630360683  0.9604535265457841   F   F   F
  0.7705148943694624  0.6736830008558314  0.4619503025558487   F   F   F
  0.7292674700146691  0.3267689891922387  0.9617142478945340   F   F   F
  0.7672321771014339  0.8278412966383328  0.4589306655285910   F   F   F
  0.1100712451405409  0.8253925858984628  0.0270240821539406   T   T   T
  0.3838128441234261  0.3328167507032376  0.5348645897704642   F   F   F
  0.1153410332024243  0.6680930923084152  0.0354129386650068   T   T   T
  0.3871664783574928  0.1732929918343373  0.5284274486333729   F   F   F
  0.8885910724512129  0.1741791652206004  0.9687626447969251   F   F   F
  0.6151703354970353  0.6683419517869149  0.4664400388445581   T   T   T
  0.8845682660458465  0.3313365692362282  0.9688592303131571   F   F   F
  0.6098603016190288  0.8246967216418436  0.4667369499783105   T   T   T
  0.0671430365903532  0.8776648686512020  0.8176675273944903   T   T   T
  0.4296187918833070  0.3807904396791315  0.3235770832407638   F   F   F
  0.0719410076639880  0.6186495586673875  0.8254813716195916   T   T   T
  0.4298386864331647  0.1219448030402290  0.3147383788259859   F   F   F
  0.9313303583366448  0.1204255304898822  0.1797556592387366   F   F   F
  0.5738064582573953  0.6177838797862348  0.6784871145214251   T   T   T
  0.9294278456908103  0.3821823535097053  0.1786128344654685   F   F   F
  0.5701681876258059  0.8780796258714262  0.6814737053554263   T   T   T
  0.1912308560086543  0.8264190872326809  0.7003278847319594   T   T   T
  0.3043878125403197  0.3283029345053663  0.2088102140072223   F   F   F
  0.1964982937854863  0.6736054510918392  0.7086235752098931   T   T   T
  0.3062584209198889  0.1744276639114446  0.1973710375007229   F   F   F
  0.8075901907811343  0.1731066724234296  0.2981673193236105   F   F   F
  0.6967236563786159  0.6731212839246083  0.7969698192598074   F   F   F
  0.8056990289316843  0.3264431970004651  0.2949562906770211   F   F   F
  0.6921280280513002  0.8264513841877630  0.8014150331501497   F   F   F
  0.3151768801812269  0.7530652241697772  0.3460839240123151   T   T   T
  0.4102482759529633  0.7969836607835055  0.2771012181331807   T   T   T
  0.3780667973941589  0.7098724304205779  0.4727084791578681   T   T   T
  0.4714475761858642  0.7468235693385452  0.4036478116267936   T   T   T
  0.4391912809363124  0.7439356214366722  0.1642408863594074   T   T   T
  0.4976013418641395  0.7517982143686778  0.1403436807130877   T   T   T
  0.2556748960714638  0.8098954195648909  0.3863373299600230   T   T   T
  0.4066423292965363  0.7083251185996124  0.1228118495909622   T   T   T
 
  0.00000000E+00  0.00000000E+00  0.00000000E+00
  0.00000000E+00  0.00000000E+00  0.00000000E+00
  0.00000000E+00  0.00000000E+00  0.00000000E+00
  0.00000000E+00  0.00000000E+00  0.00000000E+00
  0.00000000E+00  0.00000000E+00  0.00000000E+00
  0.00000000E+00  0.00000000E+00  0.00000000E+00
  0.00000000E+00  0.00000000E+00  0.00000000E+00
  0.00000000E+00  0.00000000E+00  0.00000000E+00
  0.00000000E+00  0.00000000E+00  0.00000000E+00
  0.00000000E+00  0.00000000E+00  0.00000000E+00
  0.00000000E+00  0.00000000E+00  0.00000000E+00
  0.00000000E+00  0.00000000E+00  0.00000000E+00
  0.00000000E+00  0.00000000E+00  0.00000000E+00
  0.00000000E+00  0.00000000E+00  0.00000000E+00
  0.00000000E+00  0.00000000E+00  0.00000000E+00
  0.00000000E+00  0.00000000E+00  0.00000000E+00
  0.00000000E+00  0.00000000E+00  0.00000000E+00
  0.00000000E+00  0.00000000E+00  0.00000000E+00
  0.00000000E+00  0.00000000E+00  0.00000000E+00
  0.00000000E+00  0.00000000E+00  0.00000000E+00
  0.00000000E+00  0.00000000E+00  0.00000000E+00
  0.00000000E+00  0.00000000E+00  0.00000000E+00
  0.00000000E+00  0.00000000E+00  0.00000000E+00
  0.00000000E+00  0.00000000E+00  0.00000000E+00
  0.00000000E+00  0.00000000E+00  0.00000000E+00
  0.00000000E+00  0.00000000E+00  0.00000000E+00
  0.00000000E+00  0.00000000E+00  0.00000000E+00
  0.00000000E+00  0.00000000E+00  0.00000000E+00
  0.00000000E+00  0.00000000E+00  0.00000000E+00
  0.00000000E+00  0.00000000E+00  0.00000000E+00
  0.00000000E+00  0.00000000E+00  0.00000000E+00
  0.00000000E+00  0.00000000E+00  0.00000000E+00
  0.00000000E+00  0.00000000E+00  0.00000000E+00
  0.00000000E+00  0.00000000E+00  0.00000000E+00
  0.00000000E+00  0.00000000E+00  0.00000000E+00
  0.00000000E+00  0.00000000E+00  0.00000000E+00
  0.00000000E+00  0.00000000E+00  0.00000000E+00
  0.00000000E+00  0.00000000E+00  0.00000000E+00
  0.00000000E+00  0.00000000E+00  0.00000000E+00
  0.00000000E+00  0.00000000E+00  0.00000000E+00
  0.00000000E+00  0.00000000E+00  0.00000000E+00
  0.00000000E+00  0.00000000E+00  0.00000000E+00
  0.00000000E+00  0.00000000E+00  0.00000000E+00
  0.00000000E+00  0.00000000E+00  0.00000000E+00
  0.00000000E+00  0.00000000E+00  0.00000000E+00
  0.00000000E+00  0.00000000E+00  0.00000000E+00
  0.00000000E+00  0.00000000E+00  0.00000000E+00
  0.00000000E+00  0.00000000E+00  0.00000000E+00
  0.00000000E+00  0.00000000E+00  0.00000000E+00
  0.00000000E+00  0.00000000E+00  0.00000000E+00
  0.00000000E+00  0.00000000E+00  0.00000000E+00
  0.00000000E+00  0.00000000E+00  0.00000000E+00
  0.00000000E+00  0.00000000E+00  0.00000000E+00
  0.00000000E+00  0.00000000E+00  0.00000000E+00
  0.00000000E+00  0.00000000E+00  0.00000000E+00
  0.00000000E+00  0.00000000E+00  0.00000000E+00
  0.00000000E+00  0.00000000E+00  0.00000000E+00
  0.00000000E+00  0.00000000E+00  0.00000000E+00
  0.00000000E+00  0.00000000E+00  0.00000000E+00
  0.00000000E+00  0.00000000E+00  0.00000000E+00
  0.00000000E+00  0.00000000E+00  0.00000000E+00
  0.00000000E+00  0.00000000E+00  0.00000000E+00
  0.00000000E+00  0.00000000E+00  0.00000000E+00
  0.00000000E+00  0.00000000E+00  0.00000000E+00
  0.00000000E+00  0.00000000E+00  0.00000000E+00
  0.00000000E+00  0.00000000E+00  0.00000000E+00
  0.00000000E+00  0.00000000E+00  0.00000000E+00
  0.00000000E+00  0.00000000E+00  0.00000000E+00
  0.00000000E+00  0.00000000E+00  0.00000000E+00
  0.00000000E+00  0.00000000E+00  0.00000000E+00
  0.00000000E+00  0.00000000E+00  0.00000000E+00
  0.00000000E+00  0.00000000E+00  0.00000000E+00
  0.00000000E+00  0.00000000E+00  0.00000000E+00
  0.00000000E+00  0.00000000E+00  0.00000000E+00
  0.00000000E+00  0.00000000E+00  0.00000000E+00
  0.00000000E+00  0.00000000E+00  0.00000000E+00
  0.00000000E+00  0.00000000E+00  0.00000000E+00
  0.00000000E+00  0.00000000E+00  0.00000000E+00
  0.00000000E+00  0.00000000E+00  0.00000000E+00
  0.00000000E+00  0.00000000E+00  0.00000000E+00
  0.00000000E+00  0.00000000E+00  0.00000000E+00
  0.00000000E+00  0.00000000E+00  0.00000000E+00
  0.00000000E+00  0.00000000E+00  0.00000000E+00
  0.00000000E+00  0.00000000E+00  0.00000000E+00
  0.00000000E+00  0.00000000E+00  0.00000000E+00
  0.00000000E+00  0.00000000E+00  0.00000000E+00
  0.00000000E+00  0.00000000E+00  0.00000000E+00
  0.00000000E+00  0.00000000E+00  0.00000000E+00
  0.00000000E+00  0.00000000E+00  0.00000000E+00
  0.00000000E+00  0.00000000E+00  0.00000000E+00
  0.00000000E+00  0.00000000E+00  0.00000000E+00
  0.00000000E+00  0.00000000E+00  0.00000000E+00
  0.00000000E+00  0.00000000E+00  0.00000000E+00
  0.00000000E+00  0.00000000E+00  0.00000000E+00
  0.00000000E+00  0.00000000E+00  0.00000000E+00
  0.00000000E+00  0.00000000E+00  0.00000000E+00
  0.00000000E+00  0.00000000E+00  0.00000000E+00
  0.00000000E+00  0.00000000E+00  0.00000000E+00
  0.00000000E+00  0.00000000E+00  0.00000000E+00
  0.00000000E+00  0.00000000E+00  0.00000000E+00
  0.00000000E+00  0.00000000E+00  0.00000000E+00
  0.00000000E+00  0.00000000E+00  0.00000000E+00
  0.00000000E+00  0.00000000E+00  0.00000000E+00
  0.00000000E+00  0.00000000E+00  0.00000000E+00
  0.00000000E+00  0.00000000E+00  0.00000000E+00
  0.00000000E+00  0.00000000E+00  0.00000000E+00
  0.00000000E+00  0.00000000E+00  0.00000000E+00
  0.00000000E+00  0.00000000E+00  0.00000000E+00
  0.00000000E+00  0.00000000E+00  0.00000000E+00
  0.00000000E+00  0.00000000E+00  0.00000000E+00
  0.00000000E+00  0.00000000E+00  0.00000000E+00
  0.00000000E+00  0.00000000E+00  0.00000000E+00
  0.00000000E+00  0.00000000E+00  0.00000000E+00
  0.00000000E+00  0.00000000E+00  0.00000000E+00
  0.00000000E+00  0.00000000E+00  0.00000000E+00
  0.00000000E+00  0.00000000E+00  0.00000000E+00
  0.00000000E+00  0.00000000E+00  0.00000000E+00
  0.00000000E+00  0.00000000E+00  0.00000000E+00
  0.00000000E+00  0.00000000E+00  0.00000000E+00
  0.00000000E+00  0.00000000E+00  0.00000000E+00
  0.00000000E+00  0.00000000E+00  0.00000000E+00
  0.00000000E+00  0.00000000E+00  0.00000000E+00
  0.00000000E+00  0.00000000E+00  0.00000000E+00
  0.00000000E+00  0.00000000E+00  0.00000000E+00
  0.00000000E+00  0.00000000E+00  0.00000000E+00
  0.00000000E+00  0.00000000E+00  0.00000000E+00
  0.00000000E+00  0.00000000E+00  0.00000000E+00
  0.00000000E+00  0.00000000E+00  0.00000000E+00
  0.00000000E+00  0.00000000E+00  0.00000000E+00
  0.00000000E+00  0.00000000E+00  0.00000000E+00
  0.00000000E+00  0.00000000E+00  0.00000000E+00
  0.00000000E+00  0.00000000E+00  0.00000000E+00
  0.00000000E+00  0.00000000E+00  0.00000000E+00
  0.00000000E+00  0.00000000E+00  0.00000000E+00
  0.00000000E+00  0.00000000E+00  0.00000000E+00
  0.00000000E+00  0.00000000E+00  0.00000000E+00
  0.00000000E+00  0.00000000E+00  0.00000000E+00
  0.00000000E+00  0.00000000E+00  0.00000000E+00
  0.00000000E+00  0.00000000E+00  0.00000000E+00
  0.00000000E+00  0.00000000E+00  0.00000000E+00
  0.00000000E+00  0.00000000E+00  0.00000000E+00
  0.00000000E+00  0.00000000E+00  0.00000000E+00
  0.00000000E+00  0.00000000E+00  0.00000000E+00
  0.00000000E+00  0.00000000E+00  0.00000000E+00
  0.00000000E+00  0.00000000E+00  0.00000000E+00
  0.00000000E+00  0.00000000E+00  0.00000000E+00
  0.00000000E+00  0.00000000E+00  0.00000000E+00
  0.00000000E+00  0.00000000E+00  0.00000000E+00
  0.00000000E+00  0.00000000E+00  0.00000000E+00
  0.00000000E+00  0.00000000E+00  0.00000000E+00
  0.00000000E+00  0.00000000E+00  0.00000000E+00
  0.00000000E+00  0.00000000E+00  0.00000000E+00
  0.00000000E+00  0.00000000E+00  0.00000000E+00
  0.00000000E+00  0.00000000E+00  0.00000000E+00
  0.00000000E+00  0.00000000E+00  0.00000000E+00
  0.00000000E+00  0.00000000E+00  0.00000000E+00
  0.00000000E+00  0.00000000E+00  0.00000000E+00
  0.00000000E+00  0.00000000E+00  0.00000000E+00
  0.00000000E+00  0.00000000E+00  0.00000000E+00
  0.00000000E+00  0.00000000E+00  0.00000000E+00
  0.00000000E+00  0.00000000E+00  0.00000000E+00
  0.00000000E+00  0.00000000E+00  0.00000000E+00
  0.00000000E+00  0.00000000E+00  0.00000000E+00