O  Si Ru C  O  H                        
   1.00000000000000     
    20.3096463179830877    0.0000000000000000    0.0000000000000000
     0.0000000000000000   19.8625212307842212    0.0000000000000000
     0.0000000000000000    0.0000000000000000   13.3711533343531652
   O    Si   Ru   C    O    H 
   192    96     2     1     1     3
Selective dynamics
Direct
  0.5029151419623901  0.0735660596726220  0.7069316305773725   F   F   F
  0.9975465120921569  0.5722056013321435  0.2087406600889281   F   F   F
  0.5029625376940245  0.4265088223227380  0.7071140439527213   F   F   F
  0.9969406622496245  0.9280628051676918  0.2091816322211739   T   T   T
  0.4976915649295453  0.9275199799659603  0.2912947003953729   T   T   T
  0.0032184386695491  0.4269330484855089  0.7921409749159594   F   F   F
  0.4977203592960961  0.5720242044357065  0.2903984015411680   F   F   F
  0.0031941412613889  0.0729668753257329  0.7917158063303020   F   F   F
  0.3878579723645430  0.0669556667519231  0.7965548156122182   F   F   F
  0.1133759987999525  0.5681642766849038  0.2964373645987877   F   F   F
  0.3878584358486918  0.4330437684886519  0.7965742164748164   F   F   F
  0.1122639367807191  0.9325138845418180  0.2976518238838466   T   T   T
  0.6129611174571575  0.9319963671211933  0.2024306090543950   T   T   T
  0.8876973671888919  0.4327342034956771  0.7036508835393036   F   F   F
  0.6135821534334056  0.5682784344751042  0.2033449439821382   F   F   F
  0.8876117469000917  0.0673661435016157  0.7035018781795443   F   F   F
  0.4009161058478412  0.1389419031021148  0.6318180153029829   F   F   F
  0.0975120319263801  0.6395379557044445  0.1315139664285478   T   T   T
  0.4010424696537882  0.3610528181545121  0.6318133081225312   F   F   F
  0.0966189830289306  0.8604701887904004  0.1334769659949746   T   T   T
  0.5990100161770516  0.8609807955768451  0.3683285427806516   T   T   T
  0.9019278058779037  0.3610410398314983  0.8685731531220142   F   F   F
  0.5997110270411925  0.6386962072929879  0.3683109784144400   T   T   T
  0.9020589687179950  0.1389418631131747  0.8685141393728202   F   F   F
  0.4059805669348791  0.0047442563955897  0.6216751015979938   F   F   F
  0.0951764573732916  0.5048736608876467  0.1227496371721131   F   F   F
  0.4060063268505516  0.4952757309538711  0.6217644002593659   F   F   F
  0.0952440232221348  0.9949398354088782  0.1226942205470923   T   T   T
  0.5951603202456913  0.9954357312988570  0.3758633403185493   T   T   T
  0.9063174878259801  0.4953848205285425  0.8779651251188270   F   F   F
  0.5950752590078494  0.5043549968709016  0.3761727772273389   F   F   F
  0.9063218528932850  0.0045785558899212  0.8776992153014049   F   F   F
  0.3240114434950669  0.0382407076679172  0.9638230470655600   F   F   F
  0.1763485455368254  0.5378781522500660  0.4641542393044347   F   F   F
  0.3240639192643968  0.4618354887910741  0.9638665486159397   F   F   F
  0.1764026490699689  0.9613608078868806  0.4644465108784030   T   T   T
  0.6767722460525628  0.9617810157686995  0.0356011827923560   T   T   T
  0.8239264782183469  0.4615726959520288  0.5363529546552854   F   F   F
  0.6766273407468262  0.5380862158563389  0.0360413412402991   F   F   F
  0.8238113343158346  0.0383815205381524  0.5362542402135873   F   F   F
  0.3203445735307310  0.9535622062212189  0.8078678361506036   T   T   T
  0.1776758631529702  0.4534601678782408  0.3068976961336460   F   F   F
  0.3217291042216033  0.5466230856040681  0.8071625387420625   F   F   F
  0.1777392319065001  0.0465284403162727  0.3069405612850815   F   F   F
  0.6782953929680886  0.0464276494116262  0.1929820249193881   F   F   F
  0.8214903320832505  0.5463853187552132  0.6930224919608605   F   F   F
  0.6783411531563246  0.4536225664016982  0.1930928964972622   F   F   F
  0.8217075626384506  0.9537966648859120  0.6936193729703055   T   T   T
  0.2563457342386215  0.0684226129951071  0.8017762481607349   F   F   F
  0.2448952522016867  0.5671912581414134  0.3029801725596926   F   F   F
  0.2563604704749665  0.4316428390570621  0.8018556833268136   F   F   F
  0.2433607864904224  0.9315854288384049  0.3016933003316696   T   T   T
  0.7442745973552001  0.9319337968538134  0.1977347744645265   T   T   T
  0.7562410131176875  0.4314383528184749  0.6983979119208144   F   F   F
  0.7450790913829763  0.5677876932779427  0.1974180494790900   F   F   F
  0.7561874466482195  0.0686029683221889  0.6982838657223311   F   F   F
  0.2923457530791964  0.1261305060343005  0.1042687178754136   F   F   F
  0.2075796974733377  0.6258921820934423  0.6045123931152787   T   T   T
  0.2924222850649301  0.3739550916486252  0.1043750301760937   F   F   F
  0.2090009070193434  0.8741346116908718  0.6061572072751789   T   T   T
  0.7091426901049618  0.8738229222025015  0.8950758096171461   T   T   T
  0.7920626114484861  0.3741440791997874  0.3955590558159940   F   F   F
  0.7094524099220140  0.6262863652822048  0.8959500290737229   T   T   T
  0.7918328172678528  0.1258395964698522  0.3955348022627305   F   F   F
  0.2009180106485928  0.0428348962614322  0.0293984412057924   F   F   F
  0.2996968197579477  0.5426935160259490  0.5294112209858000   F   F   F
  0.2010372834083469  0.4573071122565651  0.0296181964629270   F   F   F
  0.2995951944663225  0.9576117726531992  0.5284992930390668   T   T   T
  0.7998392098518161  0.9575456959980198  0.9697339495743472   T   T   T
  0.7007908648720971  0.4573025797676209  0.4705712418615562   F   F   F
  0.7997060817570443  0.5420944581861136  0.9703302267615257   F   F   F
  0.7006462591275380  0.0424959606184885  0.4703037048025678   F   F   F
  0.2947748744427340  0.9941191746418261  0.1439299768472502   T   T   T
  0.2042062705839172  0.4967531181442908  0.6471179485467573   F   F   F
  0.2967512456497943  0.5034965594674716  0.1468170404423290   F   F   F
  0.2042827147657746  0.0033044922153636  0.6469642495983621   F   F   F
  0.7035695737600207  0.0031082455789999  0.8524917251822970   F   F   F
  0.7966009577419371  0.5038039927924629  0.3537093559489008   F   F   F
  0.7037483821235924  0.4970039567455018  0.8526551329040757   F   F   F
  0.7965339267928542  0.9960690269449315  0.3535568682964614   T   T   T
  0.1093131791865716  0.1272507473097590  0.0964945470806668   F   F   F
  0.3867459415168920  0.6258072769787008  0.6032440838858247   T   T   T
  0.1096159065423521  0.3727429065902896  0.0968433397711834   F   F   F
  0.3889950603373190  0.8733970220083829  0.6016643549842329   T   T   T
  0.8911252498054386  0.8726134538623245  0.9020216062378590   T   T   T
  0.6094185792695015  0.3723840888363128  0.4038542259655458   F   F   F
  0.8912062633747453  0.6271610430219973  0.9023616371021674   T   T   T
  0.6094041022901209  0.1276315479534134  0.4037605891893747   F   F   F
  0.0831048349475765  0.0475109685477975  0.9435687042287597   F   F   F
  0.4176871806418063  0.5499813561623768  0.4438436836473443   F   F   F
  0.0831856777148303  0.4523523729842580  0.9438997465468049   F   F   F
  0.4177573273047959  0.9498046058184710  0.4444737151240844   T   T   T
  0.9176025272716133  0.9512442496284621  0.0558964492944843   T   T   T
  0.5827906879946028  0.4530925389524398  0.5556375829759830   F   F   F
  0.9173413997613409  0.5488456328287370  0.0565855780411937   F   F   F
  0.5826187119468287  0.0467912904197689  0.5553540539617146   F   F   F
  0.1296231040844802  0.0799627804154994  0.7634423203244225   F   F   F
  0.3713805715389924  0.5807279038530382  0.2623249302738841   F   F   F
  0.1296318253701898  0.4200410798835748  0.7636759413020187   F   F   F
  0.3709767323281656  0.9218977805534500  0.2618150054190360   T   T   T
  0.8707530677735357  0.9196812271073568  0.2359306205556224   T   T   T
  0.6292993944101113  0.4207916246772925  0.7356744224965155   F   F   F
  0.8713626048482652  0.5804791718471378  0.2374900436238292   F   F   F
  0.6292492851724560  0.0793042870953116  0.7352598947508895   F   F   F
  0.0749419360819599  0.9607286265764401  0.7924356217435469   T   T   T
  0.4241131313273669  0.4613752091790673  0.2948144036777691   F   F   F
  0.0748028995871124  0.5391836990524368  0.7923195950701611   F   F   F
  0.4241964469789892  0.0386462131336458  0.2945780170194396   F   F   F
  0.9248077689555814  0.0391348004589247  0.2067119060627078   F   F   F
  0.5730250382433582  0.5395395133105296  0.7075292341394857   F   F   F
  0.9246677977408950  0.4608033835361240  0.2067758124953869   F   F   F
  0.5736418209929117  0.9604794695962140  0.7069131004731053   T   T   T
  0.2161824121332003  0.1373904738735874  0.6463271447778780   F   F   F
  0.2808055758367861  0.6364522685768710  0.1462146413491324   T   T   T
  0.2161517510064428  0.3626744318723070  0.6464343906898762   F   F   F
  0.2850221420697185  0.8585498348306698  0.1515950340100607   T   T   T
  0.7845515936509841  0.8619727008099008  0.3523177590447109   T   T   T
  0.7150253360603145  0.3628167424777686  0.8534947758407938   F   F   F
  0.7849280666285933  0.6383643427957332  0.3523813425150734   T   T   T
  0.7148261493384283  0.1372886464544649  0.8532633160024901   F   F   F
  0.4974447835116947  0.8523700334233570  0.7118099291704387   T   T   T
  0.0036584267006603  0.3545747407892605  0.2132407109572441   F   F   F
  0.4974750631098747  0.6486866795272452  0.7084313734224413   T   T   T
  0.0035385368081577  0.1455500153788094  0.2131493366729131   F   F   F
  0.5037287630216625  0.1445781717231256  0.2864470147087275   F   F   F
  0.9965769003455218  0.6459627073922390  0.7835132083605608   T   T   T
  0.5037707510527198  0.3555116669135501  0.2864961434610791   F   F   F
  0.9973572916254524  0.8535718842494716  0.7855938176872616   T   T   T
  0.3822763371763932  0.8370309381514475  0.7943238078638843   T   T   T
  0.1210268688035399  0.3338110613837486  0.2872208120334179   F   F   F
  0.3827827056537030  0.6644203020815963  0.7925740065690002   T   T   T
  0.1209586482013023  0.1660553506375635  0.2869694551628612   F   F   F
  0.6210864063625010  0.1658884040414250  0.2130439895052163   F   F   F
  0.8785964062016988  0.6660137806884059  0.7120969702295356   T   T   T
  0.6211110157533284  0.3341538800550268  0.2131485949028544   F   F   F
  0.8801318726307794  0.8346696143373271  0.7110915981413679   T   T   T
  0.4202332989464296  0.7507708446470236  0.6554695053714142   T   T   T
  0.0746191832608716  0.2500230315661014  0.1491574075772419   F   F   F
  0.5737535633323603  0.2500033269389590  0.3499372146450668   F   F   F
  0.9254145448891455  0.7499104527978754  0.8492375586302460   T   T   T
  0.3159092654636039  0.8665928508703821  0.9579929325361370   T   T   T
  0.1831382099758727  0.3656193254218110  0.4546788161282862   F   F   F
  0.3163468539037977  0.6342605380266890  0.9553980547391839   T   T   T
  0.1830710617180671  0.1345150281137819  0.4545914900688217   F   F   F
  0.6830517762348904  0.1344874634880142  0.0452736917138168   F   F   F
  0.8176023433658938  0.6336831164944529  0.5445011901736400   T   T   T
  0.6830854472072687  0.3655253709567745  0.0454288807432022   F   F   F
  0.8175008056151002  0.8671249939518624  0.5442574065551076   T   T   T
  0.2512221061601906  0.8413045177351363  0.7897882848095845   T   T   T
  0.2513284304882717  0.3439160443049900  0.2888596437238746   F   F   F
  0.2516538813595008  0.6580693899318688  0.7872316159107259   T   T   T
  0.2512496259875334  0.1561531436267387  0.2887659973841181   F   F   F
  0.7514064122389215  0.1563514770940770  0.2107774734307739   F   F   F
  0.7482805607422809  0.6560456386071477  0.7097027046361128   T   T   T
  0.7514333991542230  0.3437018738677295  0.2109204239965408   F   F   F
  0.7497581726012189  0.8432866168929172  0.7100887386053235   T   T   T
  0.2916078644481684  0.7493196783576697  0.0488669166211721   T   T   T
  0.2037513614112356  0.2500402232570522  0.5473130572547689   F   F   F
  0.7036288451255430  0.2500227799147439  0.9524367183681051   F   F   F
  0.7992209902530377  0.7504330196961462  0.4537980506060640   T   T   T
  0.1946133103123417  0.8357236734172709  0.0095539918159155   T   T   T
  0.3039760542072045  0.3321511197779401  0.5063204852821102   F   F   F
  0.1940571139190805  0.6658097283715797  0.0034689948248915   T   T   T
  0.3039535270350342  0.1678850199576374  0.5061614664230731   F   F   F
  0.8037674365760594  0.1675499430433049  0.9919476301601620   F   F   F
  0.6979144414781612  0.6696004416054928  0.4915342686216446   T   T   T
  0.8038193000716305  0.3323998958156906  0.9923103515000236   F   F   F
  0.6974036032181059  0.8314734676985264  0.4922273762898653   T   T   T
  0.0933029146773185  0.7503715856235513  0.0224582035464869   T   T   T
  0.4070684857934594  0.2499810289984339  0.5234879823940233   F   F   F
  0.9068306617426174  0.2499858845960929  0.9771434341541791   F   F   F
  0.5944510082850111  0.7498181262260947  0.4778112238344946   T   T   T
  0.0792858390173947  0.8702385560915628  0.9370862771907846   T   T   T
  0.4196731292247478  0.3690835510139365  0.4362494260570955   F   F   F
  0.0774318524214428  0.6309327975521301  0.9360762809927616   T   T   T
  0.4196318579545562  0.1308483549065897  0.4362280688829117   F   F   F
  0.9187871414795694  0.1307480475178480  0.0643944961597001   F   F   F
  0.5851314682967385  0.6295476726267035  0.5648713165322448   T   T   T
  0.9189813415853791  0.3691962182345989  0.0643979391319860   F   F   F
  0.5822829762840401  0.8693393722926184  0.5639102979633958   T   T   T
  0.1240420660445112  0.8406687999180450  0.7527187246651141   T   T   T
  0.3782191667140111  0.3406282260943811  0.2495822814269246   F   F   F
  0.1237954889755202  0.6594037106837020  0.7524889385705034   T   T   T
  0.3781398319688947  0.1593484212036174  0.2495850342034558   F   F   F
  0.8780772199561611  0.1597428608575626  0.2513021010905376   F   F   F
  0.6219949377425961  0.6590660887044175  0.7530624544925375   T   T   T
  0.8781527669198397  0.3400969411418018  0.2511874583142415   F   F   F
  0.6230947095571285  0.8407699785446229  0.7504581763340150   T   T   T
  0.2002538226428526  0.7499940268512741  0.6668712896533541   T   T   T
  0.2996637301077030  0.2500277610362360  0.1677077677577756   F   F   F
  0.7990848778479602  0.2499825440223233  0.3330224582314472   F   F   F
  0.7016013277832343  0.7499449820346443  0.8320584070831146   T   T   T
  0.4243120677247703  0.0706248793323780  0.6882720414480872   F   F   F
  0.0760515629478533  0.5707141827737630  0.1887833199971851   F   F   F
  0.4243642501694112  0.4293781953153299  0.6883255931551702   F   F   F
  0.0753697191799642  0.9297567876308499  0.1896966081257643   T   T   T
  0.5762238655155568  0.9292106928812579  0.3104980209135670   T   T   T
  0.9246233627582825  0.4294307430317730  0.8116017276557059   F   F   F
  0.5761242863364586  0.5706873103235637  0.3109170475815333   F   F   F
  0.9246201416023538  0.0705567486414296  0.8113905219130189   F   F   F
  0.3223819734165474  0.0318316953936488  0.8430151480515420   F   F   F
  0.1780452314772205  0.5317164602638726  0.3432883448099062   F   F   F
  0.3224146420772769  0.4682209026483264  0.8430421287326908   F   F   F
  0.1774557085524558  0.9683591234070336  0.3437689782582554   T   T   T
  0.6780581657762245  0.9681755882816012  0.1564682495473599   T   T   T
  0.8222945580976031  0.4680597921700667  0.6571628257407198   F   F   F
  0.6784011481407290  0.5319538700143198  0.1569513425766544   F   F   F
  0.8222309627981090  0.0319692201244450  0.6570775164942972   F   F   F
  0.2779123087333701  0.0511264612777964  0.0613109493893447   F   F   F
  0.2226568316635706  0.5510577151876532  0.5612541371714030   F   F   F
  0.2780423512307522  0.4489808195105951  0.0614569707557564   F   F   F
  0.2229646933683138  0.9487776977021997  0.5617083703914620   T   T   T
  0.7228085770903845  0.9489165754136784  0.9380461747505724   T   T   T
  0.7778141510926559  0.4491288428941544  0.4387963766751781   F   F   F
  0.7227333495790305  0.5509907875996660  0.9386600761461779   F   F   F
  0.7777079553616204  0.0507975122443085  0.4386758489674847   F   F   F
  0.1224574189986996  0.0532732866075847  0.0483851064646856   F   F   F
  0.3779769887972222  0.5535711134250292  0.5484128788570217   F   F   F
  0.1226107360804676  0.4467220309073738  0.0486672413644982   F   F   F
  0.3778079804524802  0.9460308716350732  0.5490188050056698   T   T   T
  0.8781909853133071  0.9463757735441757  0.9509938555078156   T   T   T
  0.6224157232441314  0.4466922016762993  0.4511188640456680   F   F   F
  0.8780396312731398  0.5534298767382921  0.9515768464672476   F   F   F
  0.6222660347702487  0.0532503084769687  0.4508426119537319   F   F   F
  0.0728412340832634  0.0397062233897643  0.8238019586723624   F   F   F
  0.4277437962122690  0.5407555480855848  0.3241855554615896   F   F   F
  0.0728651157205249  0.4602342044834629  0.8241694721060924   F   F   F
  0.4279273893205914  0.9594443938310594  0.3251224405207614   T   T   T
  0.9271960976446630  0.9601943955443965  0.1755146101209575   T   T   T
  0.5722872311394767  0.4606056157916711  0.6753226260991951   F   F   F
  0.9275541845522710  0.5399426299954300  0.1762338123948481   F   F   F
  0.5722002755176163  0.0394245703525797  0.6750904917086089   F   F   F
  0.2016626826565684  0.0714697559756701  0.7134550092025691   F   F   F
  0.2988993987442186  0.5712898499085739  0.2141871586954238   F   F   F
  0.2016336523030233  0.4285870286521600  0.7135974393340589   F   F   F
  0.2985740386806302  0.9284008830872784  0.2147000671553296   T   T   T
  0.7988242135718053  0.9283221971053210  0.2860029546769917   T   T   T
  0.7012003299792298  0.4288186369106910  0.7861858612953654   F   F   F
  0.7990674709343182  0.5717379632341064  0.2865965737987679   F   F   F
  0.7010838455696202  0.0712665571672204  0.7859514996808130   F   F   F
  0.4226019135067445  0.8284483902091339  0.6897050210972586   T   T   T
  0.0769156502417161  0.3279886870119242  0.1860147788485307   F   F   F
  0.4224943532076412  0.6721667701196922  0.6867394426602231   T   T   T
  0.0768112818279434  0.1720160537428654  0.1858265876985072   F   F   F
  0.5767129546629590  0.1718671486741741  0.3139569590465925   F   F   F
  0.9232468769135777  0.6718851639836977  0.8125960779166567   T   T   T
  0.5767212789286447  0.3281510196691713  0.3140415784961021   F   F   F
  0.9237061618088536  0.8279011513342680  0.8126912464077471   T   T   T
  0.3173919291329699  0.8744477182687240  0.8365632943826510   T   T   T
  0.1833074541364965  0.3740495101119237  0.3339202901998917   F   F   F
  0.3183280601364417  0.6259874880084491  0.8343115775097010   T   T   T
  0.1832639004326140  0.1259627486727979  0.3338573048679194   F   F   F
  0.6834029271010706  0.1259062829963540  0.1659798546337825   F   F   F
  0.8164356203922596  0.6256859425383292  0.6653465985236889   T   T   T
  0.6834285715484469  0.3741454557802228  0.1661310163765606   F   F   F
  0.8173596494579008  0.8745469318461996  0.6652290536139757   T   T   T
  0.2711821036971473  0.8277755947688520  0.0397276414910318   T   T   T
  0.2271237881017711  0.3276058948125495  0.5390136658916944   F   F   F
  0.2703932488743254  0.6706574819671003  0.0379818754573559   T   T   T
  0.2271202873219309  0.1724799435127480  0.5389173023724467   F   F   F
  0.7267472501634842  0.1723610876501098  0.9604303881170466   F   F   F
  0.7747936505438430  0.6730399500753845  0.4601792970570784   T   T   T
  0.7268216124557796  0.3276504608084423  0.9606404345553159   F   F   F
  0.7743971763186478  0.8276489604686006  0.4603514065927097   T   T   T
  0.1155875615340870  0.8287476509231013  0.0257374973230163   T   T   T
  0.3827581189327915  0.3278378273251619  0.5246491080329818   F   F   F
  0.1154861692850829  0.6717832044261489  0.0236875723714077   T   T   T
  0.3827275409154680  0.1721328363621524  0.5246189896410982   F   F   F
  0.8826748189633378  0.1720728385653771  0.9752648999179740   F   F   F
  0.6191306699241047  0.6713308182918855  0.4750337301821335   T   T   T
  0.8827059240094073  0.3279195982384806  0.9753863353167560   F   F   F
  0.6186786346132421  0.8281684092500788  0.4750789865262002   T   T   T
  0.0693431014338196  0.8811146587681675  0.8171196778750962   T   T   T
  0.4310362713513314  0.3815536136468793  0.3171561254436810   F   F   F
  0.0686763021234017  0.6189371783186061  0.8161507530523497   T   T   T
  0.4310160210270055  0.1184563301937942  0.3171106125946963   F   F   F
  0.9308107186515571  0.1189823214311971  0.1834600447849795   F   F   F
  0.5695001101726328  0.6193267916308939  0.6831825117103115   T   T   T
  0.9308747943928424  0.3809922836910218  0.1834914197417490   F   F   F
  0.5694654094814996  0.8806232147706945  0.6830899080053447   T   T   T
  0.1961168920541724  0.8274534945991477  0.7038740336302010   T   T   T
  0.3055343881691073  0.3279008594260304  0.2027792002935414   F   F   F
  0.1958190427331533  0.6721745515897927  0.7028891780716257   T   T   T
  0.3054784587058776  0.1721382358153463  0.2027155232773481   F   F   F
  0.8051754997750677  0.1721935395061607  0.2975943809345409   F   F   F
  0.6951665762405660  0.6719914642694169  0.7975984343999515   T   T   T
  0.8052597360911449  0.3277658206369907  0.2976066237846595   F   F   F
  0.6957889488034626  0.8277251935193448  0.7968282020721275   T   T   T
  0.3381061648203233  0.7656916610049821  0.2543862142311921   T   T   T
  0.4226848304036415  0.7468848229436630  0.3459510057116649   T   T   T
  0.4291328019468804  0.7615082415348682  0.1935325716343174   T   T   T
  0.4608167839032660  0.7081628389277014  0.4623509676642769   T   T   T
  0.4394681361593307  0.7179122374839806  0.1451068718627933   T   T   T
  0.4498010638143876  0.8090111080501268  0.1648007579457672   T   T   T
  0.5020640031296104  0.7322701826183007  0.4761149604538061   T   T   T
 
  0.00000000E+00  0.00000000E+00  0.00000000E+00
  0.00000000E+00  0.00000000E+00  0.00000000E+00
  0.00000000E+00  0.00000000E+00  0.00000000E+00
  0.00000000E+00  0.00000000E+00  0.00000000E+00
  0.00000000E+00  0.00000000E+00  0.00000000E+00
  0.00000000E+00  0.00000000E+00  0.00000000E+00
  0.00000000E+00  0.00000000E+00  0.00000000E+00
  0.00000000E+00  0.00000000E+00  0.00000000E+00
  0.00000000E+00  0.00000000E+00  0.00000000E+00
  0.00000000E+00  0.00000000E+00  0.00000000E+00
  0.00000000E+00  0.00000000E+00  0.00000000E+00
  0.00000000E+00  0.00000000E+00  0.00000000E+00
  0.00000000E+00  0.00000000E+00  0.00000000E+00
  0.00000000E+00  0.00000000E+00  0.00000000E+00
  0.00000000E+00  0.00000000E+00  0.00000000E+00
  0.00000000E+00  0.00000000E+00  0.00000000E+00
  0.00000000E+00  0.00000000E+00  0.00000000E+00
  0.00000000E+00  0.00000000E+00  0.00000000E+00
  0.00000000E+00  0.00000000E+00  0.00000000E+00
  0.00000000E+00  0.00000000E+00  0.00000000E+00
  0.00000000E+00  0.00000000E+00  0.00000000E+00
  0.00000000E+00  0.00000000E+00  0.00000000E+00
  0.00000000E+00  0.00000000E+00  0.00000000E+00
  0.00000000E+00  0.00000000E+00  0.00000000E+00
  0.00000000E+00  0.00000000E+00  0.00000000E+00
  0.00000000E+00  0.00000000E+00  0.00000000E+00
  0.00000000E+00  0.00000000E+00  0.00000000E+00
  0.00000000E+00  0.00000000E+00  0.00000000E+00
  0.00000000E+00  0.00000000E+00  0.00000000E+00
  0.00000000E+00  0.00000000E+00  0.00000000E+00
  0.00000000E+00  0.00000000E+00  0.00000000E+00
  0.00000000E+00  0.00000000E+00  0.00000000E+00
  0.00000000E+00  0.00000000E+00  0.00000000E+00
  0.00000000E+00  0.00000000E+00  0.00000000E+00
  0.00000000E+00  0.00000000E+00  0.00000000E+00
  0.00000000E+00  0.00000000E+00  0.00000000E+00
  0.00000000E+00  0.00000000E+00  0.00000000E+00
  0.00000000E+00  0.00000000E+00  0.00000000E+00
  0.00000000E+00  0.00000000E+00  0.00000000E+00
  0.00000000E+00  0.00000000E+00  0.00000000E+00
  0.00000000E+00  0.00000000E+00  0.00000000E+00
  0.00000000E+00  0.00000000E+00  0.00000000E+00
  0.00000000E+00  0.00000000E+00  0.00000000E+00
  0.00000000E+00  0.00000000E+00  0.00000000E+00
  0.00000000E+00  0.00000000E+00  0.00000000E+00
  0.00000000E+00  0.00000000E+00  0.00000000E+00
  0.00000000E+00  0.00000000E+00  0.00000000E+00
  0.00000000E+00  0.00000000E+00  0.00000000E+00
  0.00000000E+00  0.00000000E+00  0.00000000E+00
  0.00000000E+00  0.00000000E+00  0.00000000E+00
  0.00000000E+00  0.00000000E+00  0.00000000E+00
  0.00000000E+00  0.00000000E+00  0.00000000E+00
  0.00000000E+00  0.00000000E+00  0.00000000E+00
  0.00000000E+00  0.00000000E+00  0.00000000E+00
  0.00000000E+00  0.00000000E+00  0.00000000E+00
  0.00000000E+00  0.00000000E+00  0.00000000E+00
  0.00000000E+00  0.00000000E+00  0.00000000E+00
  0.00000000E+00  0.00000000E+00  0.00000000E+00
  0.00000000E+00  0.00000000E+00  0.00000000E+00
  0.00000000E+00  0.00000000E+00  0.00000000E+00
  0.00000000E+00  0.00000000E+00  0.00000000E+00
  0.00000000E+00  0.00000000E+00  0.00000000E+00
  0.00000000E+00  0.00000000E+00  0.00000000E+00
  0.00000000E+00  0.00000000E+00  0.00000000E+00
  0.00000000E+00  0.00000000E+00  0.00000000E+00
  0.00000000E+00  0.00000000E+00  0.00000000E+00
  0.00000000E+00  0.00000000E+00  0.00000000E+00
  0.00000000E+00  0.00000000E+00  0.00000000E+00
  0.00000000E+00  0.00000000E+00  0.00000000E+00
  0.00000000E+00  0.00000000E+00  0.00000000E+00
  0.00000000E+00  0.00000000E+00  0.00000000E+00
  0.00000000E+00  0.00000000E+00  0.00000000E+00
  0.00000000E+00  0.00000000E+00  0.00000000E+00
  0.00000000E+00  0.00000000E+00  0.00000000E+00
  0.00000000E+00  0.00000000E+00  0.00000000E+00
  0.00000000E+00  0.00000000E+00  0.00000000E+00
  0.00000000E+00  0.00000000E+00  0.00000000E+00
  0.00000000E+00  0.00000000E+00  0.00000000E+00
  0.00000000E+00  0.00000000E+00  0.00000000E+00
  0.00000000E+00  0.00000000E+00  0.00000000E+00
  0.00000000E+00  0.00000000E+00  0.00000000E+00
  0.00000000E+00  0.00000000E+00  0.00000000E+00
  0.00000000E+00  0.00000000E+00  0.00000000E+00
  0.00000000E+00  0.00000000E+00  0.00000000E+00
  0.00000000E+00  0.00000000E+00  0.00000000E+00
  0.00000000E+00  0.00000000E+00  0.00000000E+00
  0.00000000E+00  0.00000000E+00  0.00000000E+00
  0.00000000E+00  0.00000000E+00  0.00000000E+00
  0.00000000E+00  0.00000000E+00  0.00000000E+00
  0.00000000E+00  0.00000000E+00  0.00000000E+00
  0.00000000E+00  0.00000000E+00  0.00000000E+00
  0.00000000E+00  0.00000000E+00  0.00000000E+00
  0.00000000E+00  0.00000000E+00  0.00000000E+00
  0.00000000E+00  0.00000000E+00  0.00000000E+00
  0.00000000E+00  0.00000000E+00  0.00000000E+00
  0.00000000E+00  0.00000000E+00  0.00000000E+00
  0.00000000E+00  0.00000000E+00  0.00000000E+00
  0.00000000E+00  0.00000000E+00  0.00000000E+00
  0.00000000E+00  0.00000000E+00  0.00000000E+00
  0.00000000E+00  0.00000000E+00  0.00000000E+00
  0.00000000E+00  0.00000000E+00  0.00000000E+00
  0.00000000E+00  0.00000000E+00  0.00000000E+00
  0.00000000E+00  0.00000000E+00  0.00000000E+00
  0.00000000E+00  0.00000000E+00  0.00000000E+00
  0.00000000E+00  0.00000000E+00  0.00000000E+00
  0.00000000E+00  0.00000000E+00  0.00000000E+00
  0.00000000E+00  0.00000000E+00  0.00000000E+00
  0.00000000E+00  0.00000000E+00  0.00000000E+00
  0.00000000E+00  0.00000000E+00  0.00000000E+00
  0.00000000E+00  0.00000000E+00  0.00000000E+00
  0.00000000E+00  0.00000000E+00  0.00000000E+00
  0.00000000E+00  0.00000000E+00  0.00000000E+00
  0.00000000E+00  0.00000000E+00  0.00000000E+00
  0.00000000E+00  0.00000000E+00  0.00000000E+00
  0.00000000E+00  0.00000000E+00  0.00000000E+00
  0.00000000E+00  0.00000000E+00  0.00000000E+00
  0.00000000E+00  0.00000000E+00  0.00000000E+00
  0.00000000E+00  0.00000000E+00  0.00000000E+00
  0.00000000E+00  0.00000000E+00  0.00000000E+00
  0.00000000E+00  0.00000000E+00  0.00000000E+00
  0.00000000E+00  0.00000000E+00  0.00000000E+00
  0.00000000E+00  0.00000000E+00  0.00000000E+00
  0.00000000E+00  0.00000000E+00  0.00000000E+00
  0.00000000E+00  0.00000000E+00  0.00000000E+00
  0.00000000E+00  0.00000000E+00  0.00000000E+00
  0.00000000E+00  0.00000000E+00  0.00000000E+00
  0.00000000E+00  0.00000000E+00  0.00000000E+00
  0.00000000E+00  0.00000000E+00  0.00000000E+00
  0.00000000E+00  0.00000000E+00  0.00000000E+00
  0.00000000E+00  0.00000000E+00  0.00000000E+00
  0.00000000E+00  0.00000000E+00  0.00000000E+00
  0.00000000E+00  0.00000000E+00  0.00000000E+00
  0.00000000E+00  0.00000000E+00  0.00000000E+00
  0.00000000E+00  0.00000000E+00  0.00000000E+00
  0.00000000E+00  0.00000000E+00  0.00000000E+00
  0.00000000E+00  0.00000000E+00  0.00000000E+00
  0.00000000E+00  0.00000000E+00  0.00000000E+00
  0.00000000E+00  0.00000000E+00  0.00000000E+00
  0.00000000E+00  0.00000000E+00  0.00000000E+00
  0.00000000E+00  0.00000000E+00  0.00000000E+00
  0.00000000E+00  0.00000000E+00  0.00000000E+00
  0.00000000E+00  0.00000000E+00  0.00000000E+00
  0.00000000E+00  0.00000000E+00  0.00000000E+00
  0.00000000E+00  0.00000000E+00  0.00000000E+00
  0.00000000E+00  0.00000000E+00  0.00000000E+00
  0.00000000E+00  0.00000000E+00  0.00000000E+00
  0.00000000E+00  0.00000000E+00  0.00000000E+00
  0.00000000E+00  0.00000000E+00  0.00000000E+00
  0.00000000E+00  0.00000000E+00  0.00000000E+00
  0.00000000E+00  0.00000000E+00  0.00000000E+00
  0.00000000E+00  0.00000000E+00  0.00000000E+00
  0.00000000E+00  0.00000000E+00  0.00000000E+00
  0.00000000E+00  0.00000000E+00  0.00000000E+00
  0.00000000E+00  0.00000000E+00  0.00000000E+00
  0.00000000E+00  0.00000000E+00  0.00000000E+00
  0.00000000E+00  0.00000000E+00  0.00000000E+00
  0.00000000E+00  0.00000000E+00  0.00000000E+00
  0.00000000E+00  0.00000000E+00  0.00000000E+00
  0.00000000E+00  0.00000000E+00  0.00000000E+00
  0.00000000E+00  0.00000000E+00  0.00000000E+00
  0.00000000E+00  0.00000000E+00  0.00000000E+00
  0.00000000E+00  0.00000000E+00  0.00000000E+00
  0.00000000E+00  0.00000000E+00  0.00000000E+00
  0.00000000E+00  0.00000000E+00  0.00000000E+00
  0.00000000E+00  0.00000000E+00  0.00000000E+00