O  Si Ru C  O  H                        
   1.00000000000000     
    20.3096463179830877    0.0000000000000000    0.0000000000000000
     0.0000000000000000   19.8625212307842212    0.0000000000000000
     0.0000000000000000    0.0000000000000000   13.3711533343531652
   O    Si   Ru   C    O    H 
   192    96     3     1     2     1
Selective dynamics
Direct
  0.5029313868893084  0.0736056898586739  0.7056797488396072   F   F   F
  0.9970709342305923  0.5700941431506195  0.2101107417792676   F   F   F
  0.5029156782155368  0.4264032227791006  0.7056185113083657   F   F   F
  0.9969906173164773  0.9309708708378750  0.2116654303179359   F   F   F
  0.4975058551403748  0.9267536880207956  0.2925583558836991   F   F   F
  0.0035142782013793  0.4285785333706329  0.7894654952589875   F   F   F
  0.4974966893710189  0.5742278416223030  0.2924169201397362   F   F   F
  0.0035156998930290  0.0713936659300103  0.7894054086061644   F   F   F
  0.3889542273213706  0.0656441528638965  0.7983425228615957   F   F   F
  0.1126061781497114  0.5674729697592085  0.2979632816755640   F   F   F
  0.3889565314183088  0.4344077602963097  0.7983868158471594   F   F   F
  0.1130006456577703  0.9321389817785359  0.2968320469654486   F   F   F
  0.6106530924707627  0.9356367397315708  0.1981212753619275   F   F   F
  0.8876286392355013  0.4318494694530202  0.7019652330840529   F   F   F
  0.6113241789254005  0.5650868415722670  0.1992670375726888   F   F   F
  0.8876421007713020  0.0681313477328516  0.7019665889477693   F   F   F
  0.4000702401828562  0.1397116467327848  0.6347682267361776   F   F   F
  0.0953161457122462  0.6394458329557366  0.1333971583905793   F   F   F
  0.4000010007236909  0.3603105879493285  0.6348399781347496   F   F   F
  0.0939147693243427  0.8601554672346339  0.1320034151079810   F   F   F
  0.6039509970045174  0.8645753557233249  0.3654908387192748   F   F   F
  0.9036755615652226  0.3610245773759218  0.8673040386578066   F   F   F
  0.6024420244752520  0.6356201185246562  0.3639170084798806   F   F   F
  0.9036992471418515  0.1389825598366912  0.8673039788316856   F   F   F
  0.4050655113940564  0.0057646817941617  0.6215134371931086   F   F   F
  0.0958457332526237  0.5043192277067945  0.1236977153988050   F   F   F
  0.4050586462452657  0.4942567344934403  0.6215302229100601   F   F   F
  0.0959201200773023  0.9950689671074642  0.1240768547922997   F   F   F
  0.5937508042482591  0.9976112220774027  0.3731293925149544   F   F   F
  0.9056829491459126  0.4953935643539253  0.8755535665546290   F   F   F
  0.5940466326889791  0.5027444043629359  0.3733608890738367   F   F   F
  0.9056595872037789  0.0046264270214209  0.8755804782924201   F   F   F
  0.3235211054331515  0.0394013019014068  0.9647680237936882   F   F   F
  0.1756180629894999  0.5374345279888786  0.4652872393753356   F   F   F
  0.3235336788702554  0.4606790405103780  0.9647993898373528   F   F   F
  0.1752531433725508  0.9620733796431225  0.4657681080440597   F   F   F
  0.6781575057008951  0.9627773737347454  0.0348943310613308   F   F   F
  0.8237836134452152  0.4615868091194812  0.5352099473445904   F   F   F
  0.6780711611733494  0.5378053567495655  0.0349162948280792   F   F   F
  0.8238493049878386  0.0384170375190678  0.5351945646320146   F   F   F
  0.3184144698509357  0.9548473970046416  0.8085699445661518   F   F   F
  0.1786078986702435  0.4538076048119990  0.3065155543288469   F   F   F
  0.3183323503449884  0.5458119679295024  0.8089313053441884   F   F   F
  0.1786239398476823  0.0462267592944556  0.3066259419418813   F   F   F
  0.6820013519468162  0.0465699311238339  0.1921119024465554   F   F   F
  0.8214144135242520  0.5454915428088256  0.6932714081365319   F   F   F
  0.6819586530624449  0.4534452327976624  0.1921742266583024   F   F   F
  0.8214567166587514  0.9543802933677128  0.6939014201256342   F   F   F
  0.2577300385967263  0.0712151193591950  0.8008806917575768   F   F   F
  0.2442054367478050  0.5683368703561058  0.3043538916051887   F   F   F
  0.2577191747787495  0.4288522631963474  0.8009366206518678   F   F   F
  0.2448732869207859  0.9318233481924239  0.3037567595246244   F   F   F
  0.7423956103556790  0.9296915837913673  0.1992351636684617   F   F   F
  0.7561592371919161  0.4303497896917960  0.6971029160035798   F   F   F
  0.7426130491693641  0.5705067506457482  0.1994198242860037   F   F   F
  0.7561903675890775  0.0697459924549122  0.6970409788473901   F   F   F
  0.2918026443697599  0.1258079261735006  0.1067963653071473   F   F   F
  0.2080745575105425  0.6245325850352259  0.6063654288399647   F   F   F
  0.2918261136447882  0.3742766233393411  0.1068324422843716   F   F   F
  0.2088246896405792  0.8759896889259693  0.6062989902445466   F   F   F
  0.7093092218065138  0.8734805331278608  0.8949770415755793   F   F   F
  0.7912532446892442  0.3754796530182176  0.3929801966743725   F   F   F
  0.7096299386372493  0.6264314524204124  0.8951897350534210   F   F   F
  0.7912741441690585  0.1245213091666670  0.3929766754486721   F   F   F
  0.1999472134242524  0.0448986232559676  0.0271416060308454   F   F   F
  0.2989753176193872  0.5415383176022814  0.5292666542455251   F   F   F
  0.1999804522011601  0.4552219822723913  0.0272602871076728   F   F   F
  0.2986538296033672  0.9588267095171403  0.5285720164374510   F   F   F
  0.8020494152017648  0.9548656860703986  0.9705995731743471   F   F   F
  0.7008219671358233  0.4591811110342405  0.4690381188261199   F   F   F
  0.8012938275532946  0.5445260378419476  0.9709889062156805   F   F   F
  0.7008800732290226  0.0408491033289380  0.4691438708107398   F   F   F
  0.2929244201204639  0.9953332055218880  0.1455916678183726   F   F   F
  0.2040696743860266  0.4948558576368853  0.6475120168087685   F   F   F
  0.2930391815210314  0.5047359232498465  0.1456662052286788   F   F   F
  0.2040441988506743  0.0052439020459971  0.6474578734085128   F   F   F
  0.7071124383613636  0.0028392740661118  0.8521277571796944   F   F   F
  0.7971303246840407  0.5056337467205054  0.3532314118686415   F   F   F
  0.7069775764302619  0.4974163601146984  0.8519761676685391   F   F   F
  0.7971278123090002  0.9943634884681458  0.3532314846451072   F   F   F
  0.1086701585645571  0.1280741946255546  0.0975328538727638   F   F   F
  0.3876812343679674  0.6260120292704201  0.6020246344761944   F   F   F
  0.1087477464161637  0.3719944087173346  0.0976850189479990   F   F   F
  0.3871897640881770  0.8745505200140329  0.6034991198881272   F   F   F
  0.8941049783189712  0.8724433972394863  0.9011058445768825   F   F   F
  0.6104018451768169  0.3721363392326253  0.4053239396652444   F   F   F
  0.8938966861915105  0.6272030573572138  0.9005227392536099   F   F   F
  0.6104417825862996  0.1278500429254379  0.4053218263038474   F   F   F
  0.0807734370939954  0.0483032403584929  0.9452477260277163   F   F   F
  0.4172138521357027  0.5503572703176758  0.4450795356931181   F   F   F
  0.0808185471576763  0.4516975652555075  0.9453131519252196   F   F   F
  0.4165530425213930  0.9500629217024965  0.4451219050640489   F   F   F
  0.9203712484816293  0.9515614461130468  0.0539181730331961   F   F   F
  0.5830814480259718  0.4549093313654353  0.5549128449597092   F   F   F
  0.9199212379819528  0.5482574728725140  0.0541149986303822   F   F   F
  0.5831228156042272  0.0451464834213269  0.5549966504428596   F   F   F
  0.1303114809476682  0.0807154991343424  0.7670226905429871   F   F   F
  0.3708810964416500  0.5778929743554500  0.2614353455135046   F   F   F
  0.1302881717641142  0.4194516986916810  0.7670290975606235   F   F   F
  0.3698568676130236  0.9210267584630429  0.2624017120848521   F   F   F
  0.8701081442447176  0.9189414337352275  0.2315521548425750   F   F   F
  0.6288756656036654  0.4252149893320478  0.7357356816213851   F   F   F
  0.8701508338934900  0.5810218374011313  0.2322076613055799   F   F   F
  0.6288936256385966  0.0748392504498838  0.7358029685320986   F   F   F
  0.0773584593867511  0.9600637211203704  0.7947184147778970   F   F   F
  0.4275200467393532  0.4615609395028955  0.2972658848981098   F   F   F
  0.0770267045160509  0.5394566850468721  0.7945463687323766   F   F   F
  0.4274623327397435  0.0385276249840274  0.2972016585412760   F   F   F
  0.9218028690069318  0.0394959516101281  0.2053045552028863   F   F   F
  0.5682706635752268  0.5421299651585372  0.7043667853767843   F   F   F
  0.9217617668736366  0.4605084408155591  0.2052318574095011   F   F   F
  0.5681327739601869  0.9574359059814768  0.7037991336305609   F   F   F
  0.2140483791176209  0.1396588507760299  0.6476179914056956   F   F   F
  0.2829313155453974  0.6372538946644895  0.1502785612061501   F   F   F
  0.2140557210209764  0.3604587401518557  0.6476383823308254   F   F   F
  0.2843543420359751  0.8606087633418795  0.1500924127965533   F   F   F
  0.7859536056481744  0.8600621755102580  0.3511852829811843   F   F   F
  0.7123587992555329  0.3628369358615799  0.8520376717829521   F   F   F
  0.7864587055493004  0.6398899237554687  0.3515258658562885   F   F   F
  0.7123388029321944  0.1374034236275961  0.8518829018355945   F   F   F
  0.4988902913854218  0.8447603175646421  0.7051839010841192   F   F   F
  0.0028288038109281  0.3558961257219622  0.2142594428784221   F   F   F
  0.4988202429587858  0.6554811873113451  0.7052257958042247   F   F   F
  0.0028229971393401  0.1441421427197795  0.2142598869098009   F   F   F
  0.5033529947031496  0.1470155195142624  0.2906108599047315   F   F   F
  0.9973904757789285  0.6453890224237213  0.7804652720299075   F   F   F
  0.5033366433387627  0.3529824666492871  0.2906014649437694   F   F   F
  0.9980764154621440  0.8547380718468531  0.7804669992709208   F   F   F
  0.3846345314873574  0.8386570233986816  0.7947191501075039   F   F   F
  0.1198337466424348  0.3348999321217079  0.2890771359474797   F   F   F
  0.3849900491180591  0.6611151784291422  0.7940020600756768   F   F   F
  0.1198773635622601  0.1651020467818540  0.2889453652702301   F   F   F
  0.6200013696644291  0.1635879438029804  0.2129112530053945   F   F   F
  0.8796057686135370  0.6649814577202164  0.7096452689608554   F   F   F
  0.6199941015139743  0.3363985462862971  0.2129218146063749   F   F   F
  0.8799700501048022  0.8352208526238698  0.7098310722062777   F   F   F
  0.4108533734362467  0.7501434952862027  0.6528224258157067   F   F   F
  0.0728916250986487  0.2500219477076655  0.1527384108185714   F   F   F
  0.5775769937277815  0.2499911476483092  0.3505971653563833   F   F   F
  0.9279756990511956  0.7500139883605641  0.8450997947632217   F   F   F
  0.3160036499483638  0.8662909133723531  0.9591907372698714   F   F   F
  0.1828627501077733  0.3674513296048261  0.4556845427901592   F   F   F
  0.3164914748227474  0.6339292457275860  0.9580254440184035   F   F   F
  0.1828751154451780  0.1327103075486562  0.4556594843890025   F   F   F
  0.6825392693621524  0.1351271687794977  0.0447132959264991   F   F   F
  0.8168016084536944  0.6312541544588584  0.5435216369232734   F   F   F
  0.6825328578989982  0.3649442790542068  0.0447631787183127   F   F   F
  0.8158767438332717  0.8686960106432196  0.5435822199519933   F   F   F
  0.2541089052877012  0.8397634283536632  0.7891362818644865   F   F   F
  0.2501716274064023  0.3425288622723457  0.2900284312903381   F   F   F
  0.2535771862669236  0.6604108626601999  0.7874237728738578   F   F   F
  0.2502265706462694  0.1574855251960372  0.2900383464422731   F   F   F
  0.7505811918265763  0.1593212345099744  0.2099419278146399   F   F   F
  0.7489296066134159  0.6561521330386952  0.7097860051944949   F   F   F
  0.7505784352226854  0.3407012918105750  0.2099504926721565   F   F   F
  0.7492271911861295  0.8438173191415927  0.7102503737598198   F   F   F
  0.2856243373665492  0.7489764303748956  0.0417673147802589   F   F   F
  0.2022306613424192  0.2500757930892874  0.5427846367398104   F   F   F
  0.7051782305896666  0.2500589224745298  0.9513539390382775   F   F   F
  0.8031464578294916  0.7500692830978011  0.4575491685176232   F   F   F
  0.1933613184948015  0.8421094286569044  0.0096110745182330   F   F   F
  0.3032835738035615  0.3324159100768824  0.5082364876589978   F   F   F
  0.1939321258990390  0.6582480610338663  0.0050188993106559   F   F   F
  0.3032844830742789  0.1677166585579002  0.5083103050361828   F   F   F
  0.8035693142321421  0.1647513490380916  0.9887737732822757   F   F   F
  0.6976305421720568  0.6728491723131498  0.4899151361412279   F   F   F
  0.8035844757786066  0.3352873579909357  0.9888347216053290   F   F   F
  0.6971029853679198  0.8259850658064494  0.4905039275179561   F   F   F
  0.0977637684791048  0.7512273645666312  0.0249094136754806   F   F   F
  0.4062871099376011  0.2500391366212682  0.5245287152293869   F   F   F
  0.9046954615708955  0.2500015749705256  0.9753038549376356   F   F   F
  0.5915937162596094  0.7484601480133293  0.4641494650148985   F   F   F
  0.0767967540005117  0.8671430064092291  0.9374105449297829   F   F   F
  0.4189671721040042  0.3699166380907783  0.4392641898608218   F   F   F
  0.0753325556964555  0.6320936476297945  0.9376731510132075   F   F   F
  0.4189081927681997  0.1301845818559855  0.4391765511733681   F   F   F
  0.9190471654025458  0.1316629167875263  0.0636675119878376   F   F   F
  0.5853633985469529  0.6324669148710953  0.5611167417612037   F   F   F
  0.9190744708624550  0.3683162686192318  0.0636659894040790   F   F   F
  0.5843354935179832  0.8672635790813885  0.5613481026683900   F   F   F
  0.1252092141925090  0.8403303185204294  0.7547448187932986   F   F   F
  0.3775090307349984  0.3422595703715032  0.2525460708608520   F   F   F
  0.1250065245372554  0.6598390864036290  0.7553950704432708   F   F   F
  0.3775501291647103  0.1578650318510455  0.2523914044169686   F   F   F
  0.8773986813116466  0.1607968648939107  0.2499888987527186   F   F   F
  0.6228227875581851  0.6591072015222252  0.7510988857513041   F   F   F
  0.8774008019892108  0.3392078357017354  0.2499987054313522   F   F   F
  0.6224128933753974  0.8408810427908833  0.7499174816091880   F   F   F
  0.2002116778070047  0.7499833821588453  0.6643849091456744   F   F   F
  0.3013062695967506  0.2500436448832914  0.1692969184086550   F   F   F
  0.7993235032576536  0.2500029948934070  0.3357900664094871   F   F   F
  0.7019794530340349  0.7498562903424784  0.8311609994487270   F   F   F
  0.4240585722701269  0.0707835756468924  0.6891479851815348   F   F   F
  0.0756066311266679  0.5696193694099634  0.1901226323662542   F   F   F
  0.4240321044441941  0.4292400893358774  0.6891768733863941   F   F   F
  0.0743791625774008  0.9299866179187219  0.1904860406850233   F   F   F
  0.5771246061258424  0.9310810424927141  0.3089834195628569   F   F   F
  0.9249942301351979  0.4295863844357370  0.8095949109290004   F   F   F
  0.5760817026778255  0.5693374472015122  0.3083839099268317   F   F   F
  0.9249991680789691  0.0704159115462630  0.8095898215283768   F   F   F
  0.3221296738111761  0.0326833431344653  0.8439692394705531   F   F   F
  0.1778241849028319  0.5317681282149778  0.3443430891086479   F   F   F
  0.3221300852550044  0.4673753729213459  0.8440033004984642   F   F   F
  0.1782517224754443  0.9676829239580726  0.3439540187369943   F   F   F
  0.6783843827919753  0.9679716440415120  0.1549936818845055   F   F   F
  0.8221331513337589  0.4673630876243848  0.6561068865330313   F   F   F
  0.6785280157570099  0.5316221022572734  0.1557844206176995   F   F   F
  0.8221389742717520  0.0326470794569929  0.6560938397509588   F   F   F
  0.2766674781206717  0.0515632293207133  0.0616508586056668   F   F   F
  0.2222310690581395  0.5498159656293140  0.5623822814412094   F   F   F
  0.2767106032086417  0.4485397980961423  0.0617181850963462   F   F   F
  0.2223524295048804  0.9495339874162738  0.5637016257510794   F   F   F
  0.7246227779016365  0.9482774463925523  0.9381081402240454   F   F   F
  0.7777910574464073  0.4502877302419250  0.4371712941896746   F   F   F
  0.7243664841072999  0.5517421601329104  0.9381286693088740   F   F   F
  0.7778351763428191  0.0497142748103485  0.4371833541173515   F   F   F
  0.1216863357306792  0.0542439801395176  0.0487591620511836   F   F   F
  0.3770732668859011  0.5531220857535573  0.5491252302910823   F   F   F
  0.1217231472702238  0.4458161326332615  0.0488642005116589   F   F   F
  0.3767778412303215  0.9467061511509556  0.5497089864276532   F   F   F
  0.8797857868216568  0.9464648390774215  0.9496617046364406   F   F   F
  0.6225363906934049  0.4470983089445397  0.4505667001174842   F   F   F
  0.8796626498068960  0.5539408025387402  0.9500087037173515   F   F   F
  0.6225970889912773  0.0529152588231341  0.4506676145070685   F   F   F
  0.0731291652980772  0.0397280307930359  0.8250492800862688   F   F   F
  0.4279261555736369  0.5413194298741786  0.3256291865841803   F   F   F
  0.0730724893376760  0.4603591275026560  0.8251317804183813   F   F   F
  0.4285381862596509  0.9589678007034976  0.3254653632714906   F   F   F
  0.9270471710681676  0.9601783472155674  0.1742826216167472   F   F   F
  0.5711363523631903  0.4628214796971122  0.6742238819746333   F   F   F
  0.9271187310459936  0.5394336174907082  0.1743387169526613   F   F   F
  0.5711646253096418  0.0372123300978586  0.6743009740405128   F   F   F
  0.2016606151922034  0.0731780382261462  0.7145554859468604   F   F   F
  0.2979649418723724  0.5715081152673704  0.2149645319222842   F   F   F
  0.2016507193109476  0.4269281662220550  0.7146021156340225   F   F   F
  0.2974869660047403  0.9300008117184646  0.2148054593918900   F   F   F
  0.7979784257938007  0.9264994570555416  0.2854389963032844   F   F   F
  0.7012303948287339  0.4296027688174959  0.7852342345565191   F   F   F
  0.7989694640147036  0.5731963721488356  0.2852091614225927   F   F   F
  0.7012843355630878  0.0705640024606708  0.7851994744181852   F   F   F
  0.4215323671922206  0.8280625846038490  0.6891462694974351   F   F   F
  0.0758788959604288  0.3283070585508412  0.1878667151190214   F   F   F
  0.4218399354091815  0.6715067659919143  0.6891917343316010   F   F   F
  0.0758654193335957  0.1717216243068904  0.1878045398691199   F   F   F
  0.5775215717806148  0.1718077218308451  0.3153713201385600   F   F   F
  0.9245172574627318  0.6711822295291086  0.8092737708156577   F   F   F
  0.5775025096244590  0.3281717354459772  0.3153673958464509   F   F   F
  0.9247088762246349  0.8282159402597316  0.8089167543103102   F   F   F
  0.3176607872317092  0.8751234473818172  0.8377287831101228   F   F   F
  0.1828528148068074  0.3745222082372734  0.3347541130683211   F   F   F
  0.3173780229730809  0.6245884356676754  0.8378301898399769   F   F   F
  0.1828801155478885  0.1255219244761037  0.3347411946177914   F   F   F
  0.6836652384185626  0.1262601686034159  0.1653907579724532   F   F   F
  0.8168317407562498  0.6243721099768464  0.6642951328588325   F   F   F
  0.6836504306359927  0.3737583667186968  0.1654353811039897   F   F   F
  0.8165655763390589  0.8756567091391290  0.6633742954928366   F   F   F
  0.2697570959909896  0.8298599894571481  0.0399578717362985   F   F   F
  0.2261443743138400  0.3275969317296088  0.5389831885180527   F   F   F
  0.2694753385162016  0.6693370326194739  0.0405110863830345   F   F   F
  0.2261426468382552  0.1725586715516627  0.5389906405368166   F   F   F
  0.7263890467676219  0.1718938534361314  0.9589531489063745   F   F   F
  0.7764209260067503  0.6736225321952389  0.4601481341904972   F   F   F
  0.7264084473280690  0.3282168205838545  0.9590037351413940   F   F   F
  0.7764228257867174  0.8265283317275305  0.4604070237060540   F   F   F
  0.1153035318305058  0.8296528125263407  0.0262715556574733   F   F   F
  0.3820134071125807  0.3279315837152481  0.5268972807119496   F   F   F
  0.1154179875023615  0.6710790125704236  0.0252136771735181   F   F   F
  0.3820224335284550  0.1721425188600563  0.5268922827265072   F   F   F
  0.8825017583109229  0.1716008886716622  0.9735837041484317   F   F   F
  0.6202089765055376  0.6730990149456559  0.4733274520266946   F   F   F
  0.8825046637598675  0.3284050090943396  0.9735892986267771   F   F   F
  0.6195934892131376  0.8277997977546221  0.4699315250685387   F   F   F
  0.0704144928773829  0.8797378076200602  0.8165406360226513   F   F   F
  0.4313796386280728  0.3817257265524674  0.3201480338932399   F   F   F
  0.0697010520136772  0.6190966261247652  0.8140603735163481   F   F   F
  0.4313445288811337  0.1183696062053201  0.3200794166744885   F   F   F
  0.9298820881379797  0.1192231772497294  0.1828380652990447   F   F   F
  0.5689343168335839  0.6216423026318338  0.6812399033814955   F   F   F
  0.9298779704907645  0.3807775899375301  0.1828334842037975   F   F   F
  0.5688831387605831  0.8782584811253784  0.6803076074841385   F   F   F
  0.1965700438638009  0.8270803799037338  0.7031327557333569   F   F   F
  0.3054107400279733  0.3279737945795560  0.2048060146959259   F   F   F
  0.1974905454736415  0.6726757095810427  0.7041000057099041   F   F   F
  0.3054100406985896  0.1721098879818186  0.2047647328787079   F   F   F
  0.8047219830494257  0.1727425953055430  0.2971895674775027   F   F   F
  0.6957343288367568  0.6721958104944790  0.7965080693999482   F   F   F
  0.8047213309910006  0.3272637652720576  0.2971897704100996   F   F   F
  0.6957910157426710  0.8278388106228007  0.7961411198791097   F   F   F
  0.4812516399621245  0.7420582303316436  0.3672183963300242   F   F   F
  0.3883098042367976  0.7978550496687333  0.2849519309470168   F   F   F
  0.3889201215222968  0.7502507003704011  0.4524692171110587   F   F   F
  0.4627216067789277  0.7777111861777612  0.1914551405947407   T   T   T
  0.5222818687435407  0.7650367814125261  0.1999750505460796   T   T   T
  0.4228870654034651  0.7690959074587198  0.1106908652230558   T   T   T
  0.3780169375196607  0.7537303524474197  0.1733200732029829   T   T   T
 
  0.00000000E+00  0.00000000E+00  0.00000000E+00
  0.00000000E+00  0.00000000E+00  0.00000000E+00
  0.00000000E+00  0.00000000E+00  0.00000000E+00
  0.00000000E+00  0.00000000E+00  0.00000000E+00
  0.00000000E+00  0.00000000E+00  0.00000000E+00
  0.00000000E+00  0.00000000E+00  0.00000000E+00
  0.00000000E+00  0.00000000E+00  0.00000000E+00
  0.00000000E+00  0.00000000E+00  0.00000000E+00
  0.00000000E+00  0.00000000E+00  0.00000000E+00
  0.00000000E+00  0.00000000E+00  0.00000000E+00
  0.00000000E+00  0.00000000E+00  0.00000000E+00
  0.00000000E+00  0.00000000E+00  0.00000000E+00
  0.00000000E+00  0.00000000E+00  0.00000000E+00
  0.00000000E+00  0.00000000E+00  0.00000000E+00
  0.00000000E+00  0.00000000E+00  0.00000000E+00
  0.00000000E+00  0.00000000E+00  0.00000000E+00
  0.00000000E+00  0.00000000E+00  0.00000000E+00
  0.00000000E+00  0.00000000E+00  0.00000000E+00
  0.00000000E+00  0.00000000E+00  0.00000000E+00
  0.00000000E+00  0.00000000E+00  0.00000000E+00
  0.00000000E+00  0.00000000E+00  0.00000000E+00
  0.00000000E+00  0.00000000E+00  0.00000000E+00
  0.00000000E+00  0.00000000E+00  0.00000000E+00
  0.00000000E+00  0.00000000E+00  0.00000000E+00
  0.00000000E+00  0.00000000E+00  0.00000000E+00
  0.00000000E+00  0.00000000E+00  0.00000000E+00
  0.00000000E+00  0.00000000E+00  0.00000000E+00
  0.00000000E+00  0.00000000E+00  0.00000000E+00
  0.00000000E+00  0.00000000E+00  0.00000000E+00
  0.00000000E+00  0.00000000E+00  0.00000000E+00
  0.00000000E+00  0.00000000E+00  0.00000000E+00
  0.00000000E+00  0.00000000E+00  0.00000000E+00
  0.00000000E+00  0.00000000E+00  0.00000000E+00
  0.00000000E+00  0.00000000E+00  0.00000000E+00
  0.00000000E+00  0.00000000E+00  0.00000000E+00
  0.00000000E+00  0.00000000E+00  0.00000000E+00
  0.00000000E+00  0.00000000E+00  0.00000000E+00
  0.00000000E+00  0.00000000E+00  0.00000000E+00
  0.00000000E+00  0.00000000E+00  0.00000000E+00
  0.00000000E+00  0.00000000E+00  0.00000000E+00
  0.00000000E+00  0.00000000E+00  0.00000000E+00
  0.00000000E+00  0.00000000E+00  0.00000000E+00
  0.00000000E+00  0.00000000E+00  0.00000000E+00
  0.00000000E+00  0.00000000E+00  0.00000000E+00
  0.00000000E+00  0.00000000E+00  0.00000000E+00
  0.00000000E+00  0.00000000E+00  0.00000000E+00
  0.00000000E+00  0.00000000E+00  0.00000000E+00
  0.00000000E+00  0.00000000E+00  0.00000000E+00
  0.00000000E+00  0.00000000E+00  0.00000000E+00
  0.00000000E+00  0.00000000E+00  0.00000000E+00
  0.00000000E+00  0.00000000E+00  0.00000000E+00
  0.00000000E+00  0.00000000E+00  0.00000000E+00
  0.00000000E+00  0.00000000E+00  0.00000000E+00
  0.00000000E+00  0.00000000E+00  0.00000000E+00
  0.00000000E+00  0.00000000E+00  0.00000000E+00
  0.00000000E+00  0.00000000E+00  0.00000000E+00
  0.00000000E+00  0.00000000E+00  0.00000000E+00
  0.00000000E+00  0.00000000E+00  0.00000000E+00
  0.00000000E+00  0.00000000E+00  0.00000000E+00
  0.00000000E+00  0.00000000E+00  0.00000000E+00
  0.00000000E+00  0.00000000E+00  0.00000000E+00
  0.00000000E+00  0.00000000E+00  0.00000000E+00
  0.00000000E+00  0.00000000E+00  0.00000000E+00
  0.00000000E+00  0.00000000E+00  0.00000000E+00
  0.00000000E+00  0.00000000E+00  0.00000000E+00
  0.00000000E+00  0.00000000E+00  0.00000000E+00
  0.00000000E+00  0.00000000E+00  0.00000000E+00
  0.00000000E+00  0.00000000E+00  0.00000000E+00
  0.00000000E+00  0.00000000E+00  0.00000000E+00
  0.00000000E+00  0.00000000E+00  0.00000000E+00
  0.00000000E+00  0.00000000E+00  0.00000000E+00
  0.00000000E+00  0.00000000E+00  0.00000000E+00
  0.00000000E+00  0.00000000E+00  0.00000000E+00
  0.00000000E+00  0.00000000E+00  0.00000000E+00
  0.00000000E+00  0.00000000E+00  0.00000000E+00
  0.00000000E+00  0.00000000E+00  0.00000000E+00
  0.00000000E+00  0.00000000E+00  0.00000000E+00
  0.00000000E+00  0.00000000E+00  0.00000000E+00
  0.00000000E+00  0.00000000E+00  0.00000000E+00
  0.00000000E+00  0.00000000E+00  0.00000000E+00
  0.00000000E+00  0.00000000E+00  0.00000000E+00
  0.00000000E+00  0.00000000E+00  0.00000000E+00
  0.00000000E+00  0.00000000E+00  0.00000000E+00
  0.00000000E+00  0.00000000E+00  0.00000000E+00
  0.00000000E+00  0.00000000E+00  0.00000000E+00
  0.00000000E+00  0.00000000E+00  0.00000000E+00
  0.00000000E+00  0.00000000E+00  0.00000000E+00
  0.00000000E+00  0.00000000E+00  0.00000000E+00
  0.00000000E+00  0.00000000E+00  0.00000000E+00
  0.00000000E+00  0.00000000E+00  0.00000000E+00
  0.00000000E+00  0.00000000E+00  0.00000000E+00
  0.00000000E+00  0.00000000E+00  0.00000000E+00
  0.00000000E+00  0.00000000E+00  0.00000000E+00
  0.00000000E+00  0.00000000E+00  0.00000000E+00
  0.00000000E+00  0.00000000E+00  0.00000000E+00
  0.00000000E+00  0.00000000E+00  0.00000000E+00
  0.00000000E+00  0.00000000E+00  0.00000000E+00
  0.00000000E+00  0.00000000E+00  0.00000000E+00
  0.00000000E+00  0.00000000E+00  0.00000000E+00
  0.00000000E+00  0.00000000E+00  0.00000000E+00
  0.00000000E+00  0.00000000E+00  0.00000000E+00
  0.00000000E+00  0.00000000E+00  0.00000000E+00
  0.00000000E+00  0.00000000E+00  0.00000000E+00
  0.00000000E+00  0.00000000E+00  0.00000000E+00
  0.00000000E+00  0.00000000E+00  0.00000000E+00
  0.00000000E+00  0.00000000E+00  0.00000000E+00
  0.00000000E+00  0.00000000E+00  0.00000000E+00
  0.00000000E+00  0.00000000E+00  0.00000000E+00
  0.00000000E+00  0.00000000E+00  0.00000000E+00
  0.00000000E+00  0.00000000E+00  0.00000000E+00
  0.00000000E+00  0.00000000E+00  0.00000000E+00
  0.00000000E+00  0.00000000E+00  0.00000000E+00
  0.00000000E+00  0.00000000E+00  0.00000000E+00
  0.00000000E+00  0.00000000E+00  0.00000000E+00
  0.00000000E+00  0.00000000E+00  0.00000000E+00
  0.00000000E+00  0.00000000E+00  0.00000000E+00
  0.00000000E+00  0.00000000E+00  0.00000000E+00
  0.00000000E+00  0.00000000E+00  0.00000000E+00
  0.00000000E+00  0.00000000E+00  0.00000000E+00
  0.00000000E+00  0.00000000E+00  0.00000000E+00
  0.00000000E+00  0.00000000E+00  0.00000000E+00
  0.00000000E+00  0.00000000E+00  0.00000000E+00
  0.00000000E+00  0.00000000E+00  0.00000000E+00
  0.00000000E+00  0.00000000E+00  0.00000000E+00
  0.00000000E+00  0.00000000E+00  0.00000000E+00
  0.00000000E+00  0.00000000E+00  0.00000000E+00
  0.00000000E+00  0.00000000E+00  0.00000000E+00
  0.00000000E+00  0.00000000E+00  0.00000000E+00
  0.00000000E+00  0.00000000E+00  0.00000000E+00
  0.00000000E+00  0.00000000E+00  0.00000000E+00
  0.00000000E+00  0.00000000E+00  0.00000000E+00
  0.00000000E+00  0.00000000E+00  0.00000000E+00
  0.00000000E+00  0.00000000E+00  0.00000000E+00
  0.00000000E+00  0.00000000E+00  0.00000000E+00
  0.00000000E+00  0.00000000E+00  0.00000000E+00
  0.00000000E+00  0.00000000E+00  0.00000000E+00
  0.00000000E+00  0.00000000E+00  0.00000000E+00
  0.00000000E+00  0.00000000E+00  0.00000000E+00
  0.00000000E+00  0.00000000E+00  0.00000000E+00
  0.00000000E+00  0.00000000E+00  0.00000000E+00
  0.00000000E+00  0.00000000E+00  0.00000000E+00
  0.00000000E+00  0.00000000E+00  0.00000000E+00
  0.00000000E+00  0.00000000E+00  0.00000000E+00
  0.00000000E+00  0.00000000E+00  0.00000000E+00
  0.00000000E+00  0.00000000E+00  0.00000000E+00
  0.00000000E+00  0.00000000E+00  0.00000000E+00
  0.00000000E+00  0.00000000E+00  0.00000000E+00
  0.00000000E+00  0.00000000E+00  0.00000000E+00
  0.00000000E+00  0.00000000E+00  0.00000000E+00
  0.00000000E+00  0.00000000E+00  0.00000000E+00
  0.00000000E+00  0.00000000E+00  0.00000000E+00
  0.00000000E+00  0.00000000E+00  0.00000000E+00
  0.00000000E+00  0.00000000E+00  0.00000000E+00
  0.00000000E+00  0.00000000E+00  0.00000000E+00
  0.00000000E+00  0.00000000E+00  0.00000000E+00
  0.00000000E+00  0.00000000E+00  0.00000000E+00
  0.00000000E+00  0.00000000E+00  0.00000000E+00
  0.00000000E+00  0.00000000E+00  0.00000000E+00
  0.00000000E+00  0.00000000E+00  0.00000000E+00
  0.00000000E+00  0.00000000E+00  0.00000000E+00
  0.00000000E+00  0.00000000E+00  0.00000000E+00
  0.00000000E+00  0.00000000E+00  0.00000000E+00
  0.00000000E+00  0.00000000E+00  0.00000000E+00
  0.00000000E+00  0.00000000E+00  0.00000000E+00
  0.00000000E+00  0.00000000E+00  0.00000000E+00