O  Si Ru O  H                           
   1.00000000000000     
    20.3096463179830877    0.0000000000000000    0.0000000000000000
     0.0000000000000000   19.8625212307842212    0.0000000000000000
     0.0000000000000000    0.0000000000000000   13.3711533343531652
   O    Si   Ru   O    H 
   192    96     2     1     2
Selective dynamics
Direct
  0.5029151419623901  0.0735660596726220  0.7069316305773725   F   F   F
  0.9975465120921569  0.5722056013321435  0.2087406600889281   F   F   F
  0.5029625376940245  0.4265088223227380  0.7071140439527213   F   F   F
  0.9973990315038535  0.9275815260394182  0.2082054164835085   F   F   F
  0.4982688321873567  0.9283233461077032  0.2900104992720216   F   F   F
  0.0032184386695491  0.4269330484855089  0.7921409749159594   F   F   F
  0.4977203592960961  0.5720242044357065  0.2903984015411680   F   F   F
  0.0031941412613889  0.0729668753257329  0.7917158063303020   F   F   F
  0.3878579723645430  0.0669556667519231  0.7965548156122182   F   F   F
  0.1133759987999525  0.5681642766849038  0.2964373645987877   F   F   F
  0.3878584358486918  0.4330437684886519  0.7965742164748164   F   F   F
  0.1129265884729307  0.9320544962746169  0.2965280629280187   F   F   F
  0.6131829225076189  0.9320489472560709  0.2029229810987943   F   F   F
  0.8876973671888919  0.4327342034956771  0.7036508835393036   F   F   F
  0.6135821534334056  0.5682784344751042  0.2033449439821382   F   F   F
  0.8876117469000917  0.0673661435016157  0.7035018781795443   F   F   F
  0.4009161058478412  0.1389419031021148  0.6318180153029829   F   F   F
  0.0975835547868726  0.6393007680789538  0.1313615922214382   F   F   F
  0.4010424696537882  0.3610528181545121  0.6318133081225312   F   F   F
  0.0979979361335666  0.8608185820796805  0.1314491558956519   F   F   F
  0.5982290967638448  0.8611013192695651  0.3679174451249168   F   F   F
  0.9019278058779037  0.3610410398314983  0.8685731531220142   F   F   F
  0.5976156466461902  0.6393586493750476  0.3687450110545569   F   F   F
  0.9020589687179950  0.1389418631131747  0.8685141393728202   F   F   F
  0.4059805669348791  0.0047442563955897  0.6216751015979938   F   F   F
  0.0951764573732916  0.5048736608876467  0.1227496371721131   F   F   F
  0.4060063268505516  0.4952757309538711  0.6217644002593659   F   F   F
  0.0950081474371132  0.9952048579202994  0.1225674524868481   F   F   F
  0.5951642469356244  0.9958491967054286  0.3760817555837050   F   F   F
  0.9063174878259801  0.4953848205285425  0.8779651251188270   F   F   F
  0.5950752590078494  0.5043549968709016  0.3761727772273389   F   F   F
  0.9063218528932850  0.0045785558899212  0.8776992153014049   F   F   F
  0.3240114434950669  0.0382407076679172  0.9638230470655600   F   F   F
  0.1763485455368254  0.5378781522500660  0.4641542393044347   F   F   F
  0.3240639192643968  0.4618354887910741  0.9638665486159397   F   F   F
  0.1762230191265530  0.9619843149985243  0.4643685860965974   F   F   F
  0.6770335287127480  0.9618951779759755  0.0355215952895449   F   F   F
  0.8239264782183469  0.4615726959520288  0.5363529546552854   F   F   F
  0.6766273407468262  0.5380862158563389  0.0360413412402991   F   F   F
  0.8238113343158346  0.0383815205381524  0.5362542402135873   F   F   F
  0.3220152456392213  0.9533710706936418  0.8072800338781150   F   F   F
  0.1776758631529702  0.4534601678782408  0.3068976961336460   F   F   F
  0.3217291042216033  0.5466230856040681  0.8071625387420625   F   F   F
  0.1777392319065001  0.0465284403162727  0.3069405612850815   F   F   F
  0.6782953929680886  0.0464276494116262  0.1929820249193881   F   F   F
  0.8214903320832505  0.5463853187552132  0.6930224919608605   F   F   F
  0.6783411531563246  0.4536225664016982  0.1930928964972622   F   F   F
  0.8215212003894337  0.9533361131477704  0.6928913661648934   F   F   F
  0.2563457342386215  0.0684226129951071  0.8017762481607349   F   F   F
  0.2448952522016867  0.5671912581414134  0.3029801725596926   F   F   F
  0.2563604704749665  0.4316428390570621  0.8018556833268136   F   F   F
  0.2444277073653822  0.9323632075746744  0.3027986637452713   F   F   F
  0.7448113057327390  0.9319162693556038  0.1979028572067705   F   F   F
  0.7562410131176875  0.4314383528184749  0.6983979119208144   F   F   F
  0.7450790913829763  0.5677876932779427  0.1974180494790900   F   F   F
  0.7561874466482195  0.0686029683221889  0.6982838657223311   F   F   F
  0.2923457530791964  0.1261305060343005  0.1042687178754136   F   F   F
  0.2084625619877372  0.6261550853711810  0.6043045986110656   F   F   F
  0.2924222850649301  0.3739550916486252  0.1043750301760937   F   F   F
  0.2087389990688919  0.8739283292074944  0.6043154908382320   F   F   F
  0.7083287155782543  0.8735718708569209  0.8948517197136709   F   F   F
  0.7920626114484861  0.3741440791997874  0.3955590558159940   F   F   F
  0.7086788792358476  0.6262296276648343  0.8955154704678279   F   F   F
  0.7918328172678528  0.1258395964698522  0.3955348022627305   F   F   F
  0.2009180106485928  0.0428348962614322  0.0293984412057924   F   F   F
  0.2996968197579477  0.5426935160259490  0.5294112209858000   F   F   F
  0.2010372834083469  0.4573071122565651  0.0296181964629270   F   F   F
  0.2998330014398292  0.9574019678929346  0.5288794639703980   F   F   F
  0.7995112559203648  0.9573283224141136  0.9693668572672323   F   F   F
  0.7007908648720971  0.4573025797676209  0.4705712418615562   F   F   F
  0.7997060817570443  0.5420944581861136  0.9703302267615257   F   F   F
  0.7006462591275380  0.0424959606184885  0.4703037048025678   F   F   F
  0.2960380541606753  0.9962774473707370  0.1464708676359976   F   F   F
  0.2042062705839172  0.4967531181442908  0.6471179485467573   F   F   F
  0.2967512456497943  0.5034965594674716  0.1468170404423290   F   F   F
  0.2042827147657746  0.0033044922153636  0.6469642495983621   F   F   F
  0.7035695737600207  0.0031082455789999  0.8524917251822970   F   F   F
  0.7966009577419371  0.5038039927924629  0.3537093559489008   F   F   F
  0.7037483821235924  0.4970039567455018  0.8526551329040757   F   F   F
  0.7966332482652803  0.9958437947155190  0.3535626053884258   F   F   F
  0.1093131791865716  0.1272507473097590  0.0964945470806668   F   F   F
  0.3901108186136497  0.6266216374918443  0.5995622100273081   F   F   F
  0.1096159065423521  0.3727429065902896  0.0968433397711834   F   F   F
  0.3901041182425189  0.8733260013177855  0.6000167785054913   F   F   F
  0.8910147078806574  0.8724627317162685  0.9021942784890911   F   F   F
  0.6094185792695015  0.3723840888363128  0.4038542259655458   F   F   F
  0.8905086043427843  0.6273049656569896  0.9025150431416904   F   F   F
  0.6094041022901209  0.1276315479534134  0.4037605891893747   F   F   F
  0.0831048349475765  0.0475109685477975  0.9435687042287597   F   F   F
  0.4176871806418063  0.5499813561623768  0.4438436836473443   F   F   F
  0.0831856777148303  0.4523523729842580  0.9438997465468049   F   F   F
  0.4179039988327489  0.9503137507947201  0.4439447388553290   F   F   F
  0.9172216559974657  0.9513728399903130  0.0559963608289920   F   F   F
  0.5827906879946028  0.4530925389524398  0.5556375829759830   F   F   F
  0.9173413997613409  0.5488456328287370  0.0565855780411937   F   F   F
  0.5826187119468287  0.0467912904197689  0.5553540539617146   F   F   F
  0.1296231040844802  0.0799627804154994  0.7634423203244225   F   F   F
  0.3713805715389924  0.5807279038530382  0.2623249302738841   F   F   F
  0.1296318253701898  0.4200410798835748  0.7636759413020187   F   F   F
  0.3708468039519914  0.9198242919124553  0.2625925512749205   F   F   F
  0.8708595208573797  0.9194969783043092  0.2370444436605226   F   F   F
  0.6292993944101113  0.4207916246772925  0.7356744224965155   F   F   F
  0.8713626048482652  0.5804791718471378  0.2374900436238292   F   F   F
  0.6292492851724560  0.0793042870953116  0.7352598947508895   F   F   F
  0.0748563541506257  0.9607794383658401  0.7921410464817100   F   F   F
  0.4241131313273669  0.4613752091790673  0.2948144036777691   F   F   F
  0.0748028995871124  0.5391836990524368  0.7923195950701611   F   F   F
  0.4241964469789892  0.0386462131336458  0.2945780170194396   F   F   F
  0.9248077689555814  0.0391348004589247  0.2067119060627078   F   F   F
  0.5730250382433582  0.5395395133105296  0.7075292341394857   F   F   F
  0.9246677977408950  0.4608033835361240  0.2067758124953869   F   F   F
  0.5730005956955040  0.9601610470989570  0.7070732552537748   F   F   F
  0.2161824121332003  0.1373904738735874  0.6463271447778780   F   F   F
  0.2832545584052539  0.6377650851778895  0.1480620221264957   F   F   F
  0.2161517510064428  0.3626744318723070  0.6464343906898762   F   F   F
  0.2828568191738228  0.8621375269380280  0.1477591281583130   F   F   F
  0.7843362373947613  0.8615486627044859  0.3532501619627979   F   F   F
  0.7150253360603145  0.3628167424777686  0.8534947758407938   F   F   F
  0.7837868280199984  0.6380172386802201  0.3532379310957268   F   F   F
  0.7148261493384283  0.1372886464544649  0.8532633160024901   F   F   F
  0.4976260913544124  0.8519861981028285  0.7146419272255287   F   F   F
  0.0036584267006603  0.3545747407892605  0.2132407109572441   F   F   F
  0.4967768641332881  0.6479302401544444  0.7152818247910204   F   F   F
  0.0035385368081577  0.1455500153788094  0.2131493366729131   F   F   F
  0.5037287630216625  0.1445781717231256  0.2864470147087275   F   F   F
  0.9964750710550021  0.6460567805430273  0.7865089146919075   F   F   F
  0.5037707510527198  0.3555116669135501  0.2864961434610791   F   F   F
  0.9970439856797455  0.8534153875674519  0.7864182651056240   F   F   F
  0.3794760255801961  0.8335453524728678  0.7906444400602837   F   F   F
  0.1210268688035399  0.3338110613837486  0.2872208120334179   F   F   F
  0.3788170256547971  0.6665869000581566  0.7901410306986705   F   F   F
  0.1209586482013023  0.1660553506375635  0.2869694551628612   F   F   F
  0.6210864063625010  0.1658884040414250  0.2130439895052163   F   F   F
  0.8797355823945523  0.6653131387397764  0.7114006954300010   F   F   F
  0.6211110157533284  0.3341538800550268  0.2131485949028544   F   F   F
  0.8801109406859382  0.8348666537662695  0.7108597199951348   F   F   F
  0.4235131756716441  0.7503116339039551  0.6468299119624845   F   F   F
  0.0746191832608716  0.2500230315661014  0.1491574075772419   F   F   F
  0.5737535633323603  0.2500033269389590  0.3499372146450668   F   F   F
  0.9246743431916968  0.7499863663065085  0.8495501813532158   F   F   F
  0.3162735395996208  0.8661581321243261  0.9558389477549127   F   F   F
  0.1831382099758727  0.3656193254218110  0.4546788161282862   F   F   F
  0.3160702980517200  0.6335860803483655  0.9555825840313474   F   F   F
  0.1830710617180671  0.1345150281137819  0.4545914900688217   F   F   F
  0.6830517762348904  0.1344874634880142  0.0452736917138168   F   F   F
  0.8170025116978081  0.6342113070617685  0.5441562917827270   F   F   F
  0.6830854472072687  0.3655253709567745  0.0454288807432022   F   F   F
  0.8171974043933758  0.8657088146129581  0.5441236671100071   F   F   F
  0.2496515550726102  0.8431516658259426  0.7889244540137312   F   F   F
  0.2513284304882717  0.3439160443049900  0.2888596437238746   F   F   F
  0.2489586431661763  0.6565304748289336  0.7892322238071827   F   F   F
  0.2512496259875334  0.1561531436267387  0.2887659973841181   F   F   F
  0.7514064122389215  0.1563514770940770  0.2107774734307739   F   F   F
  0.7493729156189630  0.6568165845438756  0.7109704038783704   F   F   F
  0.7514333991542230  0.3437018738677295  0.2109204239965408   F   F   F
  0.7498531178666425  0.8427487975798726  0.7111509442084909   F   F   F
  0.2964461138743957  0.7501414315145567  0.0485485905462539   F   F   F
  0.2037513614112356  0.2500402232570522  0.5473130572547689   F   F   F
  0.7036288451255430  0.2500227799147439  0.9524367183681051   F   F   F
  0.7929478632664342  0.7501999733629887  0.4544973213190815   F   F   F
  0.1956533893753871  0.8311421497466753  0.0071732651209260   F   F   F
  0.3039760542072045  0.3321511197779401  0.5063204852821102   F   F   F
  0.1953807714041105  0.6684953672713974  0.0077216926489285   F   F   F
  0.3039535270350342  0.1678850199576374  0.5061614664230731   F   F   F
  0.8037674365760594  0.1675499430433049  0.9919476301601620   F   F   F
  0.6953865937051091  0.6639233695452091  0.4941287814988158   F   F   F
  0.8038193000716305  0.3323998958156906  0.9923103515000236   F   F   F
  0.6952278548086923  0.8360991338925885  0.4938388664189830   F   F   F
  0.0918829009734168  0.7502590796032607  0.0219042452421689   F   F   F
  0.4070684857934594  0.2499810289984339  0.5234879823940233   F   F   F
  0.9068306617426174  0.2499858845960929  0.9771434341541791   F   F   F
  0.5955556712913008  0.7506218757365986  0.4787149026424160   F   F   F
  0.0812056681834079  0.8699079763104294  0.9354592573603142   F   F   F
  0.4196731292247478  0.3690835510139365  0.4362494260570955   F   F   F
  0.0811282753069378  0.6303081803890791  0.9352508313923096   F   F   F
  0.4196318579545562  0.1308483549065897  0.4362280688829117   F   F   F
  0.9187871414795694  0.1307480475178480  0.0643944961597001   F   F   F
  0.5789858829290040  0.6311822009014207  0.5640013834374571   F   F   F
  0.9189813415853791  0.3691962182345989  0.0643979391319860   F   F   F
  0.5790230373554834  0.8692666927874981  0.5630801721113485   F   F   F
  0.1228621165115484  0.8404865783777140  0.7492419703946069   F   F   F
  0.3782191667140111  0.3406282260943811  0.2495822814269246   F   F   F
  0.1223680696971741  0.6596420383932085  0.7486323530674994   F   F   F
  0.3781398319688947  0.1593484212036174  0.2495850342034558   F   F   F
  0.8780772199561611  0.1597428608575626  0.2513021010905376   F   F   F
  0.6230638291699719  0.6592260766484443  0.7507494091982423   F   F   F
  0.8781527669198397  0.3400969411418018  0.2511874583142415   F   F   F
  0.6232397627945190  0.8407193666308714  0.7490405802377964   F   F   F
  0.2011417277899170  0.7500166610029524  0.6669176194476449   F   F   F
  0.2996637301077030  0.2500277610362360  0.1677077677577756   F   F   F
  0.7990848778479602  0.2499825440223233  0.3330224582314472   F   F   F
  0.7005674993384119  0.7503912187391606  0.8326487223999663   F   F   F
  0.4243120677247703  0.0706248793323780  0.6882720414480872   F   F   F
  0.0760515629478533  0.5707141827737630  0.1887833199971851   F   F   F
  0.4243642501694112  0.4293781953153299  0.6883255931551702   F   F   F
  0.0759444670599052  0.9293267325662526  0.1886417464302852   F   F   F
  0.5754599235403290  0.9294943183783673  0.3087998717955358   F   F   F
  0.9246233627582825  0.4294307430317730  0.8116017276557059   F   F   F
  0.5761242863364586  0.5706873103235637  0.3109170475815333   F   F   F
  0.9246201416023538  0.0705567486414296  0.8113905219130189   F   F   F
  0.3223819734165474  0.0318316953936488  0.8430151480515420   F   F   F
  0.1780452314772205  0.5317164602638726  0.3432883448099062   F   F   F
  0.3224146420772769  0.4682209026483264  0.8430421287326908   F   F   F
  0.1779097565537455  0.9683014721295038  0.3431325419196938   F   F   F
  0.6781410413879527  0.9680646773090444  0.1567119803369224   F   F   F
  0.8222945580976031  0.4680597921700667  0.6571628257407198   F   F   F
  0.6784011481407290  0.5319538700143198  0.1569513425766544   F   F   F
  0.8222309627981090  0.0319692201244450  0.6570775164942972   F   F   F
  0.2779123087333701  0.0511264612777964  0.0613109493893447   F   F   F
  0.2226568316635706  0.5510577151876532  0.5612541371714030   F   F   F
  0.2780423512307522  0.4489808195105951  0.0614569707557564   F   F   F
  0.2227699790742221  0.9490379650103904  0.5610497859230321   F   F   F
  0.7227474604951851  0.9491572280081613  0.9383998089562553   F   F   F
  0.7778141510926559  0.4491288428941544  0.4387963766751781   F   F   F
  0.7227333495790305  0.5509907875996660  0.9386600761461779   F   F   F
  0.7777079553616204  0.0507975122443085  0.4386758489674847   F   F   F
  0.1224574189986996  0.0532732866075847  0.0483851064646856   F   F   F
  0.3779769887972222  0.5535711134250292  0.5484128788570217   F   F   F
  0.1226107360804676  0.4467220309073738  0.0486672413644982   F   F   F
  0.3778177896210764  0.9466086477746671  0.5482933804232104   F   F   F
  0.8782731459492936  0.9464698745091056  0.9512329294622290   F   F   F
  0.6224157232441314  0.4466922016762993  0.4511188640456680   F   F   F
  0.8780396312731398  0.5534298767382921  0.9515768464672476   F   F   F
  0.6222660347702487  0.0532503084769687  0.4508426119537319   F   F   F
  0.0728412340832634  0.0397062233897643  0.8238019586723624   F   F   F
  0.4277437962122690  0.5407555480855848  0.3241855554615896   F   F   F
  0.0728651157205249  0.4602342044834629  0.8241694721060924   F   F   F
  0.4273394964410855  0.9594143858573716  0.3239928639009975   F   F   F
  0.9276243600035059  0.9601540845657510  0.1756991655973223   F   F   F
  0.5722872311394767  0.4606056157916711  0.6753226260991951   F   F   F
  0.9275541845522710  0.5399426299954300  0.1762338123948481   F   F   F
  0.5722002755176163  0.0394245703525797  0.6750904917086089   F   F   F
  0.2016626826565684  0.0714697559756701  0.7134550092025691   F   F   F
  0.2988993987442186  0.5712898499085739  0.2141871586954238   F   F   F
  0.2016336523030233  0.4285870286521600  0.7135974393340589   F   F   F
  0.2985675296514216  0.9285396546474729  0.2141444821494716   F   F   F
  0.7992833532673345  0.9285228254659543  0.2860963356493826   F   F   F
  0.7012003299792298  0.4288186369106910  0.7861858612953654   F   F   F
  0.7990674709343182  0.5717379632341064  0.2865965737987679   F   F   F
  0.7010838455696202  0.0712665571672204  0.7859514996808130   F   F   F
  0.4226928847017817  0.8278779942110219  0.6888971263882127   F   F   F
  0.0769156502417161  0.3279886870119242  0.1860147788485307   F   F   F
  0.4227066169745086  0.6721212066923385  0.6883718833422634   F   F   F
  0.0768112818279434  0.1720160537428654  0.1858265876985072   F   F   F
  0.5767129546629590  0.1718671486741741  0.3139569590465925   F   F   F
  0.9233168342211684  0.6717496564130485  0.8132190983138372   F   F   F
  0.5767212789286447  0.3281510196691713  0.3140415784961021   F   F   F
  0.9236548420309916  0.8279908511158354  0.8130821984852119   F   F   F
  0.3169881340274969  0.8740235233792149  0.8354726201063229   F   F   F
  0.1833074541364965  0.3740495101119237  0.3339202901998917   F   F   F
  0.3165466500618948  0.6260300982927660  0.8352870431457475   F   F   F
  0.1832639004326140  0.1259627486727979  0.3338573048679194   F   F   F
  0.6834029271010706  0.1259062829963540  0.1659798546337825   F   F   F
  0.8170261836849306  0.6256109378177754  0.6656339718579929   F   F   F
  0.6834285715484469  0.3741454557802228  0.1661310163765606   F   F   F
  0.8175345449130944  0.8744751299058890  0.6656253512225661   F   F   F
  0.2725996016657106  0.8271964224324009  0.0403056571896698   F   F   F
  0.2271237881017711  0.3276058948125495  0.5390136658916944   F   F   F
  0.2723647714395696  0.6724709112741394  0.0402446355336821   F   F   F
  0.2271202873219309  0.1724799435127480  0.5389173023724467   F   F   F
  0.7267472501634842  0.1723610876501098  0.9604303881170466   F   F   F
  0.7720506270819669  0.6713168194590438  0.4610438297624810   F   F   F
  0.7268216124557796  0.3276504608084423  0.9606404345553159   F   F   F
  0.7723062706644086  0.8283686319663843  0.4608171657256861   F   F   F
  0.1168054516184966  0.8276820281937631  0.0244160314888688   F   F   F
  0.3827581189327915  0.3278378273251619  0.5246491080329818   F   F   F
  0.1166935871164796  0.6722655176022911  0.0243752043097629   F   F   F
  0.3827275409154680  0.1721328363621524  0.5246189896410982   F   F   F
  0.8826748189633378  0.1720728385653771  0.9752648999179740   F   F   F
  0.6167172846339994  0.6712179324250513  0.4756969519396463   F   F   F
  0.8827059240094073  0.3279195982384806  0.9753863353167560   F   F   F
  0.6167377088033916  0.8287860375715752  0.4749578055877635   F   F   F
  0.0695776598593412  0.8810136518809344  0.8163271856194285   F   F   F
  0.4310362713513314  0.3815536136468793  0.3171561254436810   F   F   F
  0.0693758708572076  0.6189198514075116  0.8162116168810627   F   F   F
  0.4310160210270055  0.1184563301937942  0.3171106125946963   F   F   F
  0.9308107186515571  0.1189823214311971  0.1834600447849795   F   F   F
  0.5681610012709513  0.6193216856969528  0.6842312374073529   F   F   F
  0.9308747943928424  0.3809922836910218  0.1834914197417490   F   F   F
  0.5684125653652146  0.8809439592340311  0.6837091311297669   F   F   F
  0.1953338135048526  0.8277672368895566  0.7021658058304823   F   F   F
  0.3055343881691073  0.3279008594260304  0.2027792002935414   F   F   F
  0.1949402440650658  0.6722426168216202  0.7020226720724807   F   F   F
  0.3054784587058776  0.1721382358153463  0.2027155232773481   F   F   F
  0.8051754997750677  0.1721935395061607  0.2975943809345409   F   F   F
  0.6951395680407515  0.6717427558922182  0.7972329507885547   F   F   F
  0.8052597360911449  0.3277658206369907  0.2976066237846595   F   F   F
  0.6953836203069912  0.8277196258943462  0.7970172950802095   F   F   F
  0.3837978907695287  0.7440292262614392  0.2989787982660630   F   F   F
  0.4347363525937524  0.7564342896236411  0.4385827714651569   F   F   F
  0.4630479168765902  0.7656390870563428  0.2066831281632915   T   T   T
  0.4728084945828144  0.7790891521451755  0.2914126601273139   T   T   T
  0.4838314649013356  0.7209652274694207  0.1901889934470901   T   T   T
 
  0.00000000E+00  0.00000000E+00  0.00000000E+00
  0.00000000E+00  0.00000000E+00  0.00000000E+00
  0.00000000E+00  0.00000000E+00  0.00000000E+00
  0.00000000E+00  0.00000000E+00  0.00000000E+00
  0.00000000E+00  0.00000000E+00  0.00000000E+00
  0.00000000E+00  0.00000000E+00  0.00000000E+00
  0.00000000E+00  0.00000000E+00  0.00000000E+00
  0.00000000E+00  0.00000000E+00  0.00000000E+00
  0.00000000E+00  0.00000000E+00  0.00000000E+00
  0.00000000E+00  0.00000000E+00  0.00000000E+00
  0.00000000E+00  0.00000000E+00  0.00000000E+00
  0.00000000E+00  0.00000000E+00  0.00000000E+00
  0.00000000E+00  0.00000000E+00  0.00000000E+00
  0.00000000E+00  0.00000000E+00  0.00000000E+00
  0.00000000E+00  0.00000000E+00  0.00000000E+00
  0.00000000E+00  0.00000000E+00  0.00000000E+00
  0.00000000E+00  0.00000000E+00  0.00000000E+00
  0.00000000E+00  0.00000000E+00  0.00000000E+00
  0.00000000E+00  0.00000000E+00  0.00000000E+00
  0.00000000E+00  0.00000000E+00  0.00000000E+00
  0.00000000E+00  0.00000000E+00  0.00000000E+00
  0.00000000E+00  0.00000000E+00  0.00000000E+00
  0.00000000E+00  0.00000000E+00  0.00000000E+00
  0.00000000E+00  0.00000000E+00  0.00000000E+00
  0.00000000E+00  0.00000000E+00  0.00000000E+00
  0.00000000E+00  0.00000000E+00  0.00000000E+00
  0.00000000E+00  0.00000000E+00  0.00000000E+00
  0.00000000E+00  0.00000000E+00  0.00000000E+00
  0.00000000E+00  0.00000000E+00  0.00000000E+00
  0.00000000E+00  0.00000000E+00  0.00000000E+00
  0.00000000E+00  0.00000000E+00  0.00000000E+00
  0.00000000E+00  0.00000000E+00  0.00000000E+00
  0.00000000E+00  0.00000000E+00  0.00000000E+00
  0.00000000E+00  0.00000000E+00  0.00000000E+00
  0.00000000E+00  0.00000000E+00  0.00000000E+00
  0.00000000E+00  0.00000000E+00  0.00000000E+00
  0.00000000E+00  0.00000000E+00  0.00000000E+00
  0.00000000E+00  0.00000000E+00  0.00000000E+00
  0.00000000E+00  0.00000000E+00  0.00000000E+00
  0.00000000E+00  0.00000000E+00  0.00000000E+00
  0.00000000E+00  0.00000000E+00  0.00000000E+00
  0.00000000E+00  0.00000000E+00  0.00000000E+00
  0.00000000E+00  0.00000000E+00  0.00000000E+00
  0.00000000E+00  0.00000000E+00  0.00000000E+00
  0.00000000E+00  0.00000000E+00  0.00000000E+00
  0.00000000E+00  0.00000000E+00  0.00000000E+00
  0.00000000E+00  0.00000000E+00  0.00000000E+00
  0.00000000E+00  0.00000000E+00  0.00000000E+00
  0.00000000E+00  0.00000000E+00  0.00000000E+00
  0.00000000E+00  0.00000000E+00  0.00000000E+00
  0.00000000E+00  0.00000000E+00  0.00000000E+00
  0.00000000E+00  0.00000000E+00  0.00000000E+00
  0.00000000E+00  0.00000000E+00  0.00000000E+00
  0.00000000E+00  0.00000000E+00  0.00000000E+00
  0.00000000E+00  0.00000000E+00  0.00000000E+00
  0.00000000E+00  0.00000000E+00  0.00000000E+00
  0.00000000E+00  0.00000000E+00  0.00000000E+00
  0.00000000E+00  0.00000000E+00  0.00000000E+00
  0.00000000E+00  0.00000000E+00  0.00000000E+00
  0.00000000E+00  0.00000000E+00  0.00000000E+00
  0.00000000E+00  0.00000000E+00  0.00000000E+00
  0.00000000E+00  0.00000000E+00  0.00000000E+00
  0.00000000E+00  0.00000000E+00  0.00000000E+00
  0.00000000E+00  0.00000000E+00  0.00000000E+00
  0.00000000E+00  0.00000000E+00  0.00000000E+00
  0.00000000E+00  0.00000000E+00  0.00000000E+00
  0.00000000E+00  0.00000000E+00  0.00000000E+00
  0.00000000E+00  0.00000000E+00  0.00000000E+00
  0.00000000E+00  0.00000000E+00  0.00000000E+00
  0.00000000E+00  0.00000000E+00  0.00000000E+00
  0.00000000E+00  0.00000000E+00  0.00000000E+00
  0.00000000E+00  0.00000000E+00  0.00000000E+00
  0.00000000E+00  0.00000000E+00  0.00000000E+00
  0.00000000E+00  0.00000000E+00  0.00000000E+00
  0.00000000E+00  0.00000000E+00  0.00000000E+00
  0.00000000E+00  0.00000000E+00  0.00000000E+00
  0.00000000E+00  0.00000000E+00  0.00000000E+00
  0.00000000E+00  0.00000000E+00  0.00000000E+00
  0.00000000E+00  0.00000000E+00  0.00000000E+00
  0.00000000E+00  0.00000000E+00  0.00000000E+00
  0.00000000E+00  0.00000000E+00  0.00000000E+00
  0.00000000E+00  0.00000000E+00  0.00000000E+00
  0.00000000E+00  0.00000000E+00  0.00000000E+00
  0.00000000E+00  0.00000000E+00  0.00000000E+00
  0.00000000E+00  0.00000000E+00  0.00000000E+00
  0.00000000E+00  0.00000000E+00  0.00000000E+00
  0.00000000E+00  0.00000000E+00  0.00000000E+00
  0.00000000E+00  0.00000000E+00  0.00000000E+00
  0.00000000E+00  0.00000000E+00  0.00000000E+00
  0.00000000E+00  0.00000000E+00  0.00000000E+00
  0.00000000E+00  0.00000000E+00  0.00000000E+00
  0.00000000E+00  0.00000000E+00  0.00000000E+00
  0.00000000E+00  0.00000000E+00  0.00000000E+00
  0.00000000E+00  0.00000000E+00  0.00000000E+00
  0.00000000E+00  0.00000000E+00  0.00000000E+00
  0.00000000E+00  0.00000000E+00  0.00000000E+00
  0.00000000E+00  0.00000000E+00  0.00000000E+00
  0.00000000E+00  0.00000000E+00  0.00000000E+00
  0.00000000E+00  0.00000000E+00  0.00000000E+00
  0.00000000E+00  0.00000000E+00  0.00000000E+00
  0.00000000E+00  0.00000000E+00  0.00000000E+00
  0.00000000E+00  0.00000000E+00  0.00000000E+00
  0.00000000E+00  0.00000000E+00  0.00000000E+00
  0.00000000E+00  0.00000000E+00  0.00000000E+00
  0.00000000E+00  0.00000000E+00  0.00000000E+00
  0.00000000E+00  0.00000000E+00  0.00000000E+00
  0.00000000E+00  0.00000000E+00  0.00000000E+00
  0.00000000E+00  0.00000000E+00  0.00000000E+00
  0.00000000E+00  0.00000000E+00  0.00000000E+00
  0.00000000E+00  0.00000000E+00  0.00000000E+00
  0.00000000E+00  0.00000000E+00  0.00000000E+00
  0.00000000E+00  0.00000000E+00  0.00000000E+00
  0.00000000E+00  0.00000000E+00  0.00000000E+00
  0.00000000E+00  0.00000000E+00  0.00000000E+00
  0.00000000E+00  0.00000000E+00  0.00000000E+00
  0.00000000E+00  0.00000000E+00  0.00000000E+00
  0.00000000E+00  0.00000000E+00  0.00000000E+00
  0.00000000E+00  0.00000000E+00  0.00000000E+00
  0.00000000E+00  0.00000000E+00  0.00000000E+00
  0.00000000E+00  0.00000000E+00  0.00000000E+00
  0.00000000E+00  0.00000000E+00  0.00000000E+00
  0.00000000E+00  0.00000000E+00  0.00000000E+00
  0.00000000E+00  0.00000000E+00  0.00000000E+00
  0.00000000E+00  0.00000000E+00  0.00000000E+00
  0.00000000E+00  0.00000000E+00  0.00000000E+00
  0.00000000E+00  0.00000000E+00  0.00000000E+00
  0.00000000E+00  0.00000000E+00  0.00000000E+00
  0.00000000E+00  0.00000000E+00  0.00000000E+00
  0.00000000E+00  0.00000000E+00  0.00000000E+00
  0.00000000E+00  0.00000000E+00  0.00000000E+00
  0.00000000E+00  0.00000000E+00  0.00000000E+00
  0.00000000E+00  0.00000000E+00  0.00000000E+00
  0.00000000E+00  0.00000000E+00  0.00000000E+00
  0.00000000E+00  0.00000000E+00  0.00000000E+00
  0.00000000E+00  0.00000000E+00  0.00000000E+00
  0.00000000E+00  0.00000000E+00  0.00000000E+00
  0.00000000E+00  0.00000000E+00  0.00000000E+00
  0.00000000E+00  0.00000000E+00  0.00000000E+00
  0.00000000E+00  0.00000000E+00  0.00000000E+00
  0.00000000E+00  0.00000000E+00  0.00000000E+00
  0.00000000E+00  0.00000000E+00  0.00000000E+00
  0.00000000E+00  0.00000000E+00  0.00000000E+00
  0.00000000E+00  0.00000000E+00  0.00000000E+00
  0.00000000E+00  0.00000000E+00  0.00000000E+00
  0.00000000E+00  0.00000000E+00  0.00000000E+00
  0.00000000E+00  0.00000000E+00  0.00000000E+00
  0.00000000E+00  0.00000000E+00  0.00000000E+00
  0.00000000E+00  0.00000000E+00  0.00000000E+00
  0.00000000E+00  0.00000000E+00  0.00000000E+00
  0.00000000E+00  0.00000000E+00  0.00000000E+00
  0.00000000E+00  0.00000000E+00  0.00000000E+00
  0.00000000E+00  0.00000000E+00  0.00000000E+00
  0.00000000E+00  0.00000000E+00  0.00000000E+00
  0.00000000E+00  0.00000000E+00  0.00000000E+00
  0.00000000E+00  0.00000000E+00  0.00000000E+00
  0.00000000E+00  0.00000000E+00  0.00000000E+00
  0.00000000E+00  0.00000000E+00  0.00000000E+00
  0.00000000E+00  0.00000000E+00  0.00000000E+00
  0.00000000E+00  0.00000000E+00  0.00000000E+00
  0.00000000E+00  0.00000000E+00  0.00000000E+00
  0.00000000E+00  0.00000000E+00  0.00000000E+00
  0.00000000E+00  0.00000000E+00  0.00000000E+00
  0.00000000E+00  0.00000000E+00  0.00000000E+00
  0.00000000E+00  0.00000000E+00  0.00000000E+00
  0.00000000E+00  0.00000000E+00  0.00000000E+00
  0.00000000E+00  0.00000000E+00  0.00000000E+00
  0.00000000E+00  0.00000000E+00  0.00000000E+00
  0.00000000E+00  0.00000000E+00  0.00000000E+00