O  Si Ru C  O 
 1.0000000000000000
    20.3096463179830877    0.0000000000000000    0.0000000000000000
     0.0000000000000000   19.8625212307842212    0.0000000000000000
     0.0000000000000000    0.0000000000000000   13.3711533343531652
 O   Si  Ru  C   O  
 192  96   3   1   2
Selective dynamics
Cartesian
 10.2143585899345695  1.4619945775244292  9.4357521266822175   F   F   F
 20.2501473475835461 11.3180156892375212  2.8175867018799465   T   T   T
 10.2116421660268717  8.4716604301862315  9.4345623511743888   T   T   T
 20.2433762798086683 18.4829352754330465  2.8269915673531174   T   T   T
 10.1097730239061168 18.3903102461021497  3.9169574479003026   T   T   T
  0.0709633672927163  8.5131498233779581 10.5582047981114631   T   T   T
 10.1063895508710875 11.4126008156666821  3.9144645568207763   T   T   T
  0.0714026213875900  1.4180582052783457 10.5552607614407368   F   F   F
  7.8995227907814307  1.3038583799359889 10.6747602865167437   F   F   F
  2.2921045005385605 11.2776688381863526  3.9835778161610151   T   T   T
  7.8961821296874888  8.6270796367926010 10.6816906418141837   T   T   T
  2.2959720213138461 18.5191981989063557  3.9814687722113837   T   T   T
 12.4071632380329948 18.5819384773655862  2.6589456980668822   T   T   T
 18.0295182517910177  8.5741458022437254  9.3900763427861840   T   T   T
 12.4088315762971817 11.2134663885009243  2.6581712480433008   T   T   T
 18.0276971236166474  1.3532603408257071  9.3861028964134832   F   F   F
  8.1252850804643550  2.7750255494177631  8.4875832914648868   F   F   F
  1.9413088229649516 12.6947509680781501  1.7690755437340453   T   T   T
  8.1238788515374587  7.1566767028198832  8.4885426904171464   F   F   F
  1.9142915313887965 17.1002669766173057  1.7853294962283810   T   T   T
 12.2521408972553161 17.1651326676412133  4.8758948295146443   T   T   T
 18.3533310415944229  7.1708583329641478 11.5968552883972968   F   F   F
 12.2471562175189579 12.6265317757441302  4.8660805559928093   T   T   T
 18.3538120872785910  2.7605440454650174 11.5968544884530598   F   F   F
  8.2267372720262344  0.1145011145252520  8.3103514680699302   F   F   F
  1.9410938047277595 10.0208444734984194  1.6559613029076681   T   T   T
  8.2253299751714763  9.8315649758951746  8.3086280886449551   T   T   T
  1.9475883694943155 19.7729871735711953  1.6504615719745115   T   T   T
 12.0613379302660775 19.8097110517480566  4.9947834899913017   T   T   T
 18.3912760741960817  9.8467079871885499 11.7118536636943329   T   T   T
 12.0571299862656396  9.9969394887654524  4.9815867036640586   T   T   T
 18.3936259005993108  0.0918925049356464 11.7075208318142323   F   F   F
  6.5705992277502236  0.7826091955372313 12.9000611782262880   F   F   F
  3.5557635768930278 10.6712984964618975  6.2251613409607449   T   T   T
  6.5695725589481588  9.1574038852410773 12.9022702687520123   T   T   T
  3.5682749042491544 19.1131058462467038  6.2195917161771970   T   T   T
 13.7728677681245664 19.1171991809676811  0.4717747364183014   T   T   T
 16.7312431499992442  9.1672634761605032  7.1532863889871132   T   T   T
 13.7733011336736837 10.6769467365069595  0.4683351694526312   T   T   T
 16.7320880036191824  0.7630592233463181  7.1561685874070529   F   F   F
  6.4696473482177073 18.9560503646169920 10.8086722310911671   T   T   T
  3.6203826271230524  9.0130985599071600  4.0979878598781978   T   T   T
  6.4711683177200108 10.8571902663016431 10.8008092020733244   T   T   T
  3.6277890422311132  0.9181799879164761  4.0999424859953661   F   F   F
 13.8512062464261447  0.9249962456633097  2.5687577049671892   F   F   F
 16.6817065054349634 10.8301655748471060  9.2702219323753035   T   T   T
 13.8519983061365206  9.0119147457406275  2.5707691778611186   T   T   T
 16.6811149767605436 18.9591892981610286  9.2698156709666417   T   T   T
  5.2344059294196406  1.4145118202248430 10.7086985320133934   F   F   F
  4.9863503671873142 11.2800153408327066  4.0862067574547591   T   T   T
  5.2334070553079082  8.5154051988238102 10.7118094063832832   T   T   T
  4.9648853811529756 18.5049526009691157  4.0719808512570808   T   T   T
 15.0710822359492358 18.4599161465853996  2.6690658003803600   T   T   T
 15.3567004612996616  8.5457387511251284  9.3168861969979755   T   T   T
 15.0782740153076116 11.3330720159674865  2.6659211289726210   T   T   T
 15.3579589147997861  1.3853312558978097  9.3202418084960748   F   F   F
  5.9264085018020225  2.4988626046220892  1.4279905760734612   F   F   F
  4.2290893915900751 12.4042655925386196  8.1103881761081595   T   T   T
  5.9268851544771870  7.4340773772638915  1.4284729668677674   F   F   F
  4.2244956350878029 17.3882774333792476  8.1209376625624934   T   T   T
 14.4089572177221150 17.3552905297444191 11.9693699136027210   T   T   T
 16.0700735475950793  7.4579725798018401  5.2545984670972983   F   F   F
 14.4087230576809908 12.4411193514292115 11.9733270806311030   T   T   T
 16.0704980086383387  2.4733071470079691  5.2545513842485336   F   F   F
  4.0608571869128465  0.8917998576546387  0.3629145759790385   F   F   F
  6.0683536610615576 10.7583432668116235  7.0781049373693010   T   T   T
  4.0637723243641535  9.0489638552063667  0.3726593370107543   T   T   T
  6.0651257947144268 19.0296525836083390  7.0802403174671413   T   T   T
 16.2805586547347332 18.9730664267877778 12.9832555427929837   T   T   T
 14.2345215522838515  9.1223117986845033  6.2713565462662499   T   T   T
 16.2816645707617482 10.8201689657773628 12.9835109076874087   T   T   T
 14.2346263986035346  0.8113661821295294  6.2729946324823747   F   F   F
  5.9555509700235554 19.7815560123710945  1.9465344387368266   T   T   T
  4.1454453069235582  9.8311670422352631  8.6600388055065984   T   T   T
  5.9771799616622294  9.9852054250689246  1.9935773743955849   T   T   T
  4.1440655118934062  0.1041571157207702  8.6572585028794453   F   F   F
 14.3612035301659109  0.0563951414181607 11.3939309017081545   F   F   F
 16.1898400892785936 10.0482546547799760  4.7170755326606502   T   T   T
 14.3641735345505630  9.8845529251736881 11.3957901569907474   T   T   T
 16.1875316234062581 19.7488356392696751  4.7215885929492067   T   T   T
  2.2070524857652956  2.5438764098656690  1.3041267442697857   F   F   F
  7.8771416937690448 12.4357701669482505  8.0574963764709810   T   T   T
  2.2086282675899973  7.3887468408810815  1.3061613668228889   F   F   F
  7.8828378972806386 17.3731664550930738  8.0698419787813780   T   T   T
 18.1490243036514549 17.3274134399596456 12.0427681562738265   T   T   T
 12.3970455873854224  7.3915659387543391  5.4196485473480935   F   F   F
 18.1471761550658712 12.4650089853173220 12.0444401302075761   T   T   T
 12.3978567020468713  2.5394241919631839  5.4196202892688037   F   F   F
  1.6404799392669023  0.9594241371362384 12.6390522836652472   F   F   F
  8.4719162894737181 10.9348212170085883  5.9455775128516963   T   T   T
  1.6435072967798667  8.9710381890854798 12.6409411776981493   T   T   T
  8.4692592059335876 18.8567403574021846  5.9413247907857647   T   T   T
 18.6893638039328458 18.9018957251279112  0.7253390529145135   T   T   T
 11.8458773261319514  9.0363680186762334  7.4076062044347042   T   T   T
 18.6852524876538766 10.8902615458464318  0.7241758839644896   T   T   T
 11.8430181448683243  0.8967229854513534  7.4209453131238803   F   F   F
  2.6465800892197326  1.6032133152092212 10.2559780061783989   F   F   F
  7.5428593211555652 11.4833067940719804  3.5096078980594823   T   T   T
  2.6426572831675239  8.3323550646660944 10.2601612046664918   T   T   T
  7.5383017674386599 18.3155222075080886  3.5018397202530149   T   T   T
 17.6636685882279316 18.2537158992910733  3.0993942092953732   T   T   T
 12.7774506226397619  8.4491657147081973  9.8411519689182487   T   T   T
 17.6699768560554809 11.5404630360555807  3.1020105191427141   T   T   T
 12.7726071083539576  1.4864962009567946  9.8385343161149272   F   F   F
  1.5689572251174757 19.0793518895375449 10.6286919071490171   T   T   T
  8.6877760012387277  9.1708328375644825  3.9757188603812321   T   T   T
  1.5649043309693766 10.7159386841329365 10.6245272933276649   T   T   T
  8.6816087922041927  0.7652557692169367  3.9739289475794735   F   F   F
 18.7214902444328786  0.7844891773861957  2.7451586878589667   F   F   F
 11.5363102792289478 10.7681717612258741  9.4204476995734154   T   T   T
 18.7157429606706529  9.1546555725530379  2.7434606927206082   T   T   T
 11.5426388886013918 19.0257240816577813  9.4087821854018951   T   T   T
  4.3472468748164372  2.7739768886058194  8.6593994651713668   F   F   F
  5.6284915975438468 12.6134920992517436  1.9630399513750718   T   T   T
  4.3473959862768883  7.1596193790879665  8.6596721153579050   F   F   F
  5.7534091072802775 17.1025756851516739  2.0003286573012118   T   T   T
 15.9643558714429936 17.0887209655788368  4.6981472745086386   T   T   T
 14.4677552643829870  7.2068563418633236 11.3927263560551282   F   F   F
 15.9691037089853509 12.7044699738159554  4.6938009465860295   T   T   T
 14.4673491461283223  2.7291784189855659 11.3906569033574581   F   F   F
 10.1302118432479595 16.7594827851627706  9.4465147909282390   T   T   T
  0.0574520049029124  7.0689943531063246  2.8648958640604651   F   F   F
 10.1241063174840882 13.0409066854648277  9.4287549217012447   T   T   T
  0.0573340734566755  2.8630263700223493  2.8649018012721164   F   F   F
 10.2229212955185833  2.9200988776068089  3.8858023684143914   F   F   F
 20.2753274558647121 12.8228779157052699 10.4306232936590142   T   T   T
 10.2225892050910687  7.0111217379160484  3.8856767469507969   F   F   F
 20.2756444361554600 16.9737690833788974 10.4383733525513804   T   T   T
  7.7994767903784430 16.6545573543872756 10.6340437608115597   T   T   T
  2.4337810112666443  6.6519570119556173  3.8652947102094064   F   F   F
  7.8146769813876791 13.1385466405778946 10.6181794854479445   T   T   T
  2.4346668554817756  3.2793429094505049  3.8635327842789309   F   F   F
 12.5920085345496435  3.2492690068870340  2.8468690105443910   F   F   F
 17.8820275899437604 13.2013286405888124  9.4917661931590356   T   T   T
 12.5918609209845211  6.6817232676165252  2.8470102313305565   F   F   F
 17.8818600480065619 16.5938607597337615  9.4886650950371063   T   T   T
  8.3427616640102205 14.9069135641021351  8.6849309734175204   T   T   T
  1.4804031252965741  4.9660662445055284  2.0422887111005443   F   F   F
 11.7303844640151773  4.9654544776726546  4.6878884565697723   F   F   F
 18.8265836560539199 14.8951277776245181 11.3004126242889456   T   T   T
  6.4143364700569219 17.2255290626813391 12.8155026646423345   T   T   T
  3.7138777794225994  7.2985098355557492  6.0930278937418345   F   F   F
  6.4190557969452149 12.5807025768035494 12.8058975576361291   T   T   T
  3.7141289150518917  2.6359613012290875  6.0926928340176545   F   F   F
 13.8621311588799045  2.6839662587385362  0.5978683359175282   F   F   F
 16.5825037627530136 12.5432214020713513  7.2673681394133895   T   T   T
 13.8620009443308625  7.2487134907674236  0.5985353263756136   F   F   F
 16.5771447673773764 17.2523803900843973  7.2688816209732963   T   T   T
  5.1544873638819952 16.6725965493271104 10.5209405574046428   T   T   T
  5.0808972714182756  6.8034867990408303  3.8780146261050223   F   F   F
  5.1746242514816769 13.1193622575459354 10.5164635186584263   T   T   T
  5.0820131491875404  3.1280595877474924  3.8781472031218787   F   F   F
 15.2440385389279847  3.1645214029691182  2.8071657081192538   F   F   F
 15.2288846438112078 13.0384391888134346  9.4929588841886527   T   T   T
 15.2439825532779203  6.7671866419431561  2.8072802301423954   F   F   F
 15.2295183816108022 16.7547708114332181  9.4919561793159701   T   T   T
  5.7947200569800126 14.8802554068744435  0.5363420586412818   T   T   T
  4.1072332065163488  4.9671357495411730  7.2576566053791867   F   F   F
 14.3219204544172509  4.9668006565973739 12.7206993941216826   F   F   F
 16.2989788736488777 14.8957234551747160  6.1112072814575180   T   T   T
  3.9302052811001551 16.7098362374256517  0.1064661061100260   T   T   T
  6.1595821180042556  6.6026180713525360  6.7957080066015489   F   F   F
  3.9316544869651677 13.1185716688044209  0.0272553825309707   T   T   T
  6.1596005849709323  3.3312756913624808  6.7966950300706301   F   F   F
 16.3202085640390173  3.2723771680694362 13.2210457355442603   F   F   F
 14.1742385334248979 13.3646791859185310  6.5505716366396740   T   T   T
 16.3205164896853461  6.6596522665085098 13.2218606849172797   F   F   F
 14.1680216976314046 16.4195754812452357  6.5529333882829768   T   T   T
  1.9526207281654957 14.8897792914490559  0.3398426153104350   T   T   T
  8.2515475063881905  4.9664076596668965  7.0135538796033989   F   F   F
 18.3740448499893496  4.9656615905815578 13.0409373919568630   F   F   F
 12.0080690907989744 14.8845367839318872  6.1841438344375668   T   T   T
  1.5399925973895028 17.2430244712783924 12.5355168474835459   T   T   T
  8.5090750842778746  7.3474770776984073  5.8734688369194687   F   F   F
  1.5210088295895743 12.5578481922931378 12.5368697850396718   T   T   T
  8.5078772348276157  2.5857940210352783  5.8722970065915048   F   F   F
 18.6655228788706076  2.6151574799992177  0.8513080652061449   F   F   F
 11.8697132658259861 12.5573425996076313  7.5036351745370800   T   T   T
 18.6660774431039123  7.3156897050927157  0.8512877065052442   F   F   F
 11.8527315969319726 17.2064568732081327  7.5024798638632753   T   T   T
  2.5507480023675178 16.6860040040807895 10.1030311925540257   T   T   T
  7.6670748960724247  6.7981379829430679  3.3768322374688720   F   F   F
  2.5496792090290969 13.1048821486162712 10.1021257075565138   T   T   T
  7.6679095906440979  3.1355975467398185  3.3747641687320282   F   F   F
 17.8196568973042986  3.1938311427988433  3.3426398971086893   F   F   F
 12.6578619099879059 13.0917109318465616 10.0246526597568337   T   T   T
 17.8196999675155823  6.7375228382740850  3.3427710237123995   F   F   F
 12.6602031725062680 16.7011017366757031 10.0244932023211248   T   T   T
  4.0684357468801888 14.8972085861890768  8.8890090967091897   T   T   T
  6.1194237689008659  4.9664972051170455  2.2636950550756030   F   F   F
 16.2339776448141464  4.9656897938299354  4.4899004661138839   F   F   F
 14.2546655517489498 14.8960186731144759 11.1159986312999592   T   T   T
  8.6124796209151473  1.4059402740772213  9.2147033799228435   F   F   F
  1.5357002207894175 11.3245438672107888  2.5399597414788269   T   T   T
  8.6187141130313059  8.5198378575167144  9.2210721556709991   T   T   T
  1.5260735984545652 18.4876155029609137  2.5478486906480979   T   T   T
 11.6989828426559814 18.4869477704710228  4.1158401740430319   T   T   T
 18.7878190886003296  8.5273606722411373 10.8218839616753151   T   T   T
 11.6994003860222833 11.3003218994644747  4.1185643117141790   T   T   T
 18.7864059481124528  1.3986375380726728 10.8251496415875383   F   F   F
  6.5423397436322457  0.6491735969013227 11.2848421104381913   F   F   F
  3.6146862358887604 10.5566374207740505  4.6157798649052202   T   T   T
  6.5446409052406951  9.2795685350996315 11.2887469325608585   T   T   T
  3.6059248952979730 19.2356460704135444  4.6039490352071963   T   T   T
 13.7757545793606919 19.2308724938248794  2.0775281115634261   T   T   T
 16.6967705380228324  9.2853434048952366  8.7757104931502532   T   T   T
 13.7755794167998022 10.5522807535359995  2.0795376249097952   T   T   T
 16.6973517916886784  0.6484533088376209  8.7727313330346046   F   F   F
  5.6190186283191670  1.0241757371104634  0.8243430836108971   F   F   F
  4.4964862241551371 10.9269569947760026  7.5236925325230484   T   T   T
  5.6229615671453503  8.9030867040214048  0.8286935180585463   T   T   T
  4.5062724253941600 18.8682311663399993  7.5227856280209489   T   T   T
 14.7168128493777850 18.8323973963709577 12.5358515875456096   T   T   T
 15.7980369105077987  8.9417811770000277  5.8481374240792041   T   T   T
 14.7102048873722211 10.9596419501778630 12.5335184463915592   T   T   T
 15.7975573252086612  0.9874508388935883  5.8456456631299245   F   F   F
  2.4714064404214429  1.0774222071634061  0.6519662322409500   F   F   F
  7.6574640363397943 10.9722146780369112  7.3404015946404533   T   T   T
  2.4780784662744684  8.8458627748710672  0.6495774133397881   T   T   T
  7.6490699249602736 18.8151836942300257  7.3493900036989919   T   T   T
 17.8700987255182326 18.7863309576436315 12.7024828214250025   T   T   T
 12.6461880029727389  8.8728423050239034  6.0349961923376858   T   T   T
 17.8734464549070040 11.0053839328497087 12.7022533413954424   T   T   T
 12.6447266760186832  1.0510304518069431  6.0259457764011755   F   F   F
  1.4852274827332701  0.7890988550839249 11.0318604324311913   F   F   F
  8.6571147805529201 10.7650858999754604  4.3388112633881164   T   T   T
  1.4876026326467977  9.1378401646648424 11.0350187876878199   T   T   T
  8.6911867919951504 19.0448035569064551  4.3566558324902065   T   T   T
 18.8261812392777834 19.0805299343659307  2.3317523274724876   T   T   T
 11.5940089904910302  9.1847118440471132  9.0196895273772579   T   T   T
 18.8270855530693417 10.7073169752194239  2.3320489388961918   T   T   T
 11.6001515293821580  0.7391306966156671  9.0161817173993892   F   F   F
  4.0956557708205379  1.4535003378939682  9.5544309684987088   F   F   F
  6.0198896155138089 11.3549070041263604  2.8596453039396570   T   T   T
  4.0954205587115098  8.4727818223465636  9.5590579653257173   T   T   T
  6.0388048156431307 18.4437990148937416  2.8550219834463961   T   T   T
 16.2240357859019788 18.4079959274723599  3.8142120648535820   T   T   T
 14.2381705600779593  8.5283815000276633 10.4935704773330016   T   T   T
 16.2285960982427646 11.3887252429569212  3.8157731780000566   T   T   T
 14.2428368236280818  1.4015789970041836 10.4990225704990685   F   F   F
  8.5583316717382694 16.4572687605582999  9.2281609267737217   T   T   T
  1.5410735399553444  6.5210059206824011  2.5119946542776792   F   F   F
  8.5672466057157806 13.3323010423681492  9.2291829615985463   T   T   T
  1.5407998344308047  3.4108244085803623  2.5111632994776447   F   F   F
 11.7292588638699691  3.4125345224778307  4.2168782788300661   F   F   F
 18.7841080175125583 13.3464992863758525 10.8218379969093537   T   T   T
 11.7288717182203879  6.5183180626390254  4.2168258065185462   F   F   F
 18.7862384335090411 16.4524453630852250 10.8245129876001762   T   T   T
  6.4603492218857976 17.3681863100283138 11.1959862928899003   T   T   T
  3.7136759969739193  7.4389553125130314  4.4760485751419177   F   F   F
  6.4631026065068164 12.4200726025404933 11.1931697523588589   T   T   T
  3.7142304653694951  2.4931818898355029  4.4758758405590431   F   F   F
 13.8849991921805902  2.5078452794877437  2.2114651849345650   F   F   F
 16.5960217164074315 12.4067361937451430  8.8869604644359974   T   T   T
 13.8846984513538416  7.4237834941333496  2.2120618476685983   F   F   F
 16.5937920617262442 17.3848569566557671  8.8915505492407299   T   T   T
  5.4875258395632311 16.4359606615310767  0.5321425549310074   T   T   T
  4.5929122591156695  6.5069010116191235  7.2068268583134616   F   F   F
  5.4781075433198669 13.3343678367211531  0.5197113891419368   T   T   T
  4.5928771746975192  3.4274502772508217  7.2069265003990033   F   F   F
 14.7527046291072779  3.4142453133164712 12.8223095944879368   F   F   F
 15.7544061482805891 13.3743755677682881  6.1588231006512304   T   T   T
 14.7530986476283275  6.5192135671473057 12.8229859907929900   F   F   F
 15.7477903698921011 16.4164438210214350  6.1557832631585674   T   T   T
  2.3362507928349396 16.4656170530509982  0.3511173696801201   T   T   T
  7.7585571871841985  6.5135480437888091  7.0452243318532011   F   F   F
  2.3314590760458609 13.3310152948392968  0.3411437368800776   T   T   T
  7.7587405104981251  3.4191844355785412  7.0451575030234874   F   F   F
 17.9232985862930363  3.4084262944623300 13.0179369919962067   F   F   F
 12.5887912614977342 13.3411077349921303  6.2911779330616691   T   T   T
 17.9233575949334956  6.5229514654322056 13.0180117966239912   F   F   F
 12.5838189888402816 16.4518706556462426  6.2859392706435662   T   T   T
  1.4147076457931849 17.4976352561713462 10.9249937202985716   T   T   T
  8.7611678893155140  7.5820353479849159  4.2807484508782050   F   F   F
  1.4120951279741121 12.3011520762399371 10.9351857749216457   T   T   T
  8.7604548227728678  2.3511188163327379  4.2798309595249036   F   F   F
 18.8855763275099449  2.3680728893243006  2.4447558064700035   F   F   F
 11.5629056451928953 12.3604768132367902  9.1010307795546215   T   T   T
 18.8854926995513424  7.5632029643410394  2.4446945519430137   F   F   F
 11.5549782019595568 17.4276732339235956  9.0954876613159090   T   T   T
  4.0001736070108116 16.4259213687751888  9.4111162786065705   T   T   T
  6.2027841116816180  6.5143864579772943  2.7384926262970133   F   F   F
  4.0044884692639879 13.3638916375005170  9.4010984792027372   T   T   T
  6.2027699085491754  3.4185363040667656  2.7379406407890703   F   F   F
 16.3436188600398182  3.4311034667171145  3.9737672761117850   F   F   F
 14.1478416118285644 13.3557772564930488 10.6501161682108716   T   T   T
 16.3436056169638242  6.5002834857826279  3.9737699895546545   F   F   F
 14.1484589498793358 16.4418729926776663 10.6521850396133626   T   T   T
  9.8850237431163155 14.7893661429260614  4.8899259325943794   T   T   T
  7.5599547175229764 15.5992298830004099  4.1832106110816598   T   T   T
  8.0793243449707006 14.7144664568105341  6.3156827697678182   T   T   T
  9.3637033094705497 14.7453958052921479  2.9597081106924548   T   T   T
 10.0502754717673675 14.8653382904009241  1.9745417560066034   T   T   T
  7.7912228015763159 14.4425776263971546  2.7788254720322705   T   T   T
