O  Si Ru O  H                           
   1.00000000000000     
    20.3096463179830877    0.0000000000000000    0.0000000000000000
     0.0000000000000000   19.8625212307842212    0.0000000000000000
     0.0000000000000000    0.0000000000000000   13.3711533343531652
   O    Si   Ru   O    H 
   192    96     4     2     2
Selective dynamics
Direct
  0.5030219167759711  0.0548461875679251  0.7109885588016525   F   F   F
  0.9938937966979324  0.5688180105077834  0.2134779456062077   F   F   F
  0.5058956248501190  0.4361552484777675  0.7140707746348838   F   F   F
  0.9969307407971257  0.9367893372251643  0.2107947719995664   F   F   F
  0.4956563286891447  0.9425995914857431  0.2841987101425971   T   T   T
  0.0061283812685033  0.4303203659587496  0.7907562439232407   F   F   F
  0.4954829025067912  0.5655148443082474  0.2919613424518734   T   T   T
  0.0027339203094314  0.0605959185820666  0.7849661673386237   F   F   F
  0.3860705436552152  0.0662908389672339  0.7898483222843495   F   F   F
  0.1074737061312956  0.5609469281429971  0.3069216728650815   T   T   T
  0.3918973571895847  0.4397638812510323  0.8065636103196709   F   F   F
  0.1142515718471843  0.9334285227933143  0.2921784719376893   T   T   T
  0.6131109474889442  0.9350925842945546  0.2054931525058510   T   T   T
  0.8919509899701055  0.4400130574133243  0.6987715011187490   F   F   F
  0.6084089815704210  0.5581321187140986  0.1968885447566754   T   T   T
  0.8853584736240236  0.0660009794866809  0.7049171348436332   F   F   F
  0.4150774022189836  0.1337363939151075  0.6252671151390388   F   F   F
  0.0982611132277608  0.6333483672318239  0.1416695584465132   T   T   T
  0.4044305306972689  0.3699867360294036  0.6381449100672327   F   F   F
  0.0912656932349104  0.8628341139961228  0.1301441452169739   T   T   T
  0.5874874293576245  0.8648557327328383  0.3678067494676261   T   T   T
  0.9012951326334360  0.3677353588413155  0.8635668509875813   F   F   F
  0.6027731757714994  0.6270772937896878  0.3641067222475552   T   T   T
  0.9112861698241019  0.1385584644683746  0.8654262326200737   F   F   F
  0.4009465788612658  0.0003366559156817  0.6165760238177427   F   F   F
  0.0914120808619359  0.4995622485105713  0.1308651115583501   F   F   F
  0.4063484930788377  0.5049088294740187  0.6354759932715481   F   F   F
  0.0963255184459849  0.9968392428995309  0.1175502247710382   T   T   T
  0.5955398955515016  0.9974420405269265  0.3814371167061349   T   T   T
  0.9106315066055970  0.5015670825534002  0.8744907445373258   F   F   F
  0.5925023563222496  0.4944792789522339  0.3715287391515290   F   F   F
  0.9022199965761573  0.0052555491557555  0.8816219983168239   F   F   F
  0.3236763346367226  0.0390849954636465  0.9596190254799808   F   F   F
  0.1785786593158304  0.5366237907914079  0.4691549969321821   T   T   T
  0.3222850025971056  0.4629383710016981  0.9699889858142186   F   F   F
  0.1749213020293547  0.9642089148591416  0.4613337676581163   T   T   T
  0.6755816477808096  0.9644119496889090  0.0375631872379998   F   F   F
  0.8220864981557554  0.4623019861829079  0.5348732404526615   F   F   F
  0.6788020528671694  0.5351181818680715  0.0339731601972346   F   F   F
  0.8232918366550948  0.0363859314931716  0.5369555647113415   F   F   F
  0.3187495640804192  0.9539689178407066  0.8024856667997189   T   T   T
  0.1828026613875764  0.4530447170232321  0.3111307768702076   F   F   F
  0.3143668340055751  0.5475126128571265  0.8143190226316710   T   T   T
  0.1764617240531692  0.0486817771329200  0.3034075776822860   F   F   F
  0.6817394605176474  0.0470454934209812  0.1975807380997239   F   F   F
  0.8143619494048266  0.5462729297259372  0.6929214013780864   F   F   F
  0.6856148074958668  0.4519167628940082  0.1932071815038725   F   F   F
  0.8172557604827233  0.9535276769460310  0.6964557413526791   F   F   F
  0.2548607853788667  0.0697059105646929  0.7998962969530083   F   F   F
  0.2379739591263820  0.5737045591346794  0.3023373752390021   T   T   T
  0.2616163031536658  0.4264322750731395  0.8029658722338908   F   F   F
  0.2459167449256829  0.9370265040042562  0.3027136768074652   T   T   T
  0.7444369052564355  0.9307159502170350  0.1966825835338923   F   F   F
  0.7611812312371882  0.4255297013006967  0.7005930661585964   F   F   F
  0.7394293504515304  0.5723968614334041  0.1994352941752950   F   F   F
  0.7538743830334411  0.0693368307397648  0.6961347307241752   F   F   F
  0.2935907023098352  0.1295622878583629  0.0976777371066220   F   F   F
  0.2049854753035077  0.6218294156539713  0.6150775114652325   T   T   T
  0.2932368320357313  0.3796491243975311  0.1163762107497988   F   F   F
  0.1972326999678737  0.8748081145362726  0.6026861693224652   T   T   T
  0.7030199906958359  0.8755265755302872  0.8968801213865163   F   F   F
  0.7956778902170640  0.3771446349440026  0.3887123650913367   F   F   F
  0.7055654889811933  0.6216571650586502  0.8900536077898664   F   F   F
  0.7978384868410231  0.1240201280495015  0.3938602504739350   F   F   F
  0.2003194207438881  0.0480133529093223  0.0248260125384050   F   F   F
  0.3013940844360580  0.5482485929620244  0.5358066235792884   T   T   T
  0.1994168682896600  0.4574177743134626  0.0360342649242611   F   F   F
  0.2971597923365805  0.9465622223688566  0.5278026152187817   T   T   T
  0.7983851310139229  0.9529093587660142  0.9728089619277682   F   F   F
  0.6993693347324594  0.4515887201150264  0.4686903531270872   F   F   F
  0.8011718841642832  0.5438844910388170  0.9647965349887286   F   F   F
  0.7012190033848285  0.0479768842980590  0.4694406562851654   F   F   F
  0.2947091350021438  0.0008717877675224  0.1434675908507685   F   F   F
  0.2086500990079045  0.4909310820499329  0.6483418020074723   F   F   F
  0.2937497253626447  0.5108228139304529  0.1491163022236606   F   F   F
  0.2065871190241211  0.0049271126571142  0.6420673287068794   F   F   F
  0.7060343453906555  0.0056847524033827  0.8556015044883623   F   F   F
  0.7917636361775564  0.5083251590023323  0.3556352680996895   F   F   F
  0.7060479882548378  0.4907635822103842  0.8530727305260370   F   F   F
  0.7944050248007812  0.9936956690758123  0.3551952969300771   F   F   F
  0.1092684659389747  0.1304696671311660  0.0990796631821311   F   F   F
  0.3918449837044992  0.6355669820871950  0.6031341164089753   T   T   T
  0.1100096487961792  0.3689727465953467  0.0991274144746015   F   F   F
  0.3907880339105257  0.8671783103209612  0.6031368944880107   T   T   T
  0.8885015920293000  0.8715936971463023  0.8942108245790905   F   F   F
  0.6100512307239683  0.3639304705363102  0.4014410741104300   F   F   F
  0.8906687961864961  0.6323115678928843  0.9003059014744395   F   F   F
  0.6103918537151856  0.1306641015050758  0.3951140152193915   F   F   F
  0.0816241107146993  0.0546683855452983  0.9422816270915035   F   F   F
  0.4214383177034440  0.5484384082543741  0.4532299611684230   T   T   T
  0.0818887957015733  0.4509270726163876  0.9491296043751305   F   F   F
  0.4147849971207269  0.9427096009973306  0.4417569746885011   T   T   T
  0.9173365549630859  0.9437625292965492  0.0541544196464372   F   F   F
  0.5810462649621115  0.4445094042487341  0.5526524453408044   F   F   F
  0.9169692069558621  0.5537452167740753  0.0551219437514519   F   F   F
  0.5835136938986025  0.0581106726361824  0.5550008316085737   F   F   F
  0.1283920876083542  0.0780945939782072  0.7590954286687790   F   F   F
  0.3671523799669505  0.5803253868685428  0.2757773567651273   T   T   T
  0.1334544540808267  0.4191884064218456  0.7722630546641724   F   F   F
  0.3703862502219765  0.9208159341366384  0.2536596691206175   T   T   T
  0.8710284594215665  0.9196968581495142  0.2374826981147180   F   F   F
  0.6327393016155867  0.4162746520556908  0.7307264628348946   F   F   F
  0.8669578796510891  0.5819463238134048  0.2346949969655583   F   F   F
  0.6276238057634842  0.0791576187059917  0.7400974704835548   F   F   F
  0.0847794586337988  0.9569569833935774  0.8052908127750822   T   T   T
  0.4158900576007767  0.4599816032013067  0.3051486684992781   F   F   F
  0.0818901176856667  0.5395895235660901  0.7989575199711441   T   T   T
  0.4108150758446527  0.0425469562277243  0.3100261223800374   F   F   F
  0.9154264304770479  0.0409041832259120  0.1923766671616605   F   F   F
  0.5896539734002706  0.5386477046129533  0.6945983460080061   T   T   T
  0.9158174449620873  0.4612676918570742  0.2001544616488999   F   F   F
  0.5909860892386843  0.9568801294788444  0.6853735014185209   T   T   T
  0.2139646218813027  0.1395277443509571  0.6457339192986851   F   F   F
  0.2867328002956208  0.6443910253051530  0.1540876962963445   T   T   T
  0.2137150846519162  0.3567663849162059  0.6520774866142602   F   F   F
  0.2750616057269931  0.8682673016055571  0.1423092049597904   T   T   T
  0.7830198740398302  0.8598327394153955  0.3506778121665590   F   F   F
  0.7147192569278644  0.3564015061239800  0.8516031366781078   F   F   F
  0.7823615995470803  0.6421374822965689  0.3523063707167182   F   F   F
  0.7160884871365027  0.1398147600816202  0.8513629894559571   F   F   F
  0.4956102245289374  0.8671348177450826  0.7216485437082460   T   T   T
  0.0026254273645137  0.3615096809914391  0.2153508219637388   F   F   F
  0.5002300716794904  0.6348742478478250  0.7185745516726775   T   T   T
  0.0049600637063207  0.1378823570435230  0.2196306668012298   F   F   F
  0.5047109101508624  0.1338380350660628  0.2755399485317938   F   F   F
  0.0004016946126115  0.6438786536310035  0.7897878168856763   T   T   T
  0.5025922885336271  0.3611993123721149  0.2840919578486094   F   F   F
  0.9937877574828278  0.8619398859819327  0.7751185834071848   F   F   F
  0.3791788473877248  0.8351876869066673  0.7957910445164027   T   T   T
  0.1179056170610622  0.3365154859573636  0.2924293763879078   F   F   F
  0.3861314357091586  0.6597369803469355  0.8003649053431869   T   T   T
  0.1223057105959384  0.1691045100118345  0.2894164905504084   F   F   F
  0.6206459342382118  0.1652930569152247  0.2030640906941699   F   F   F
  0.8855860450022348  0.6593749903338377  0.7048546058810743   F   F   F
  0.6177403585612566  0.3364180660162077  0.2067079346123535   F   F   F
  0.8765794747597084  0.8347871473963124  0.7028253355919958   F   F   F
  0.4390968672534729  0.7501638102690553  0.6757203789848935   T   T   T
  0.0665280407444442  0.2504470425016621  0.1588728488921234   F   F   F
  0.5645556189665797  0.2479573817140022  0.3337983969611358   F   F   F
  0.9287534144999015  0.7515005864185014  0.8359024295799458   F   F   F
  0.3080635363115281  0.8693884672575614  0.9525031731299759   T   T   T
  0.1821165850865114  0.3653894682599557  0.4597442814616244   F   F   F
  0.3154090151592890  0.6369740657261764  0.9613016063799256   T   T   T
  0.1877051242282590  0.1344703670007164  0.4526120673937797   F   F   F
  0.6906223393798285  0.1294402425146401  0.0444076422488209   F   F   F
  0.8137267226771883  0.6328994816105293  0.5441421069392050   F   F   F
  0.6845524116078110  0.3659946182933140  0.0436902448533871   F   F   F
  0.8055005711436252  0.8708038267005023  0.5442723589676035   F   F   F
  0.2487080437955867  0.8426585666737049  0.7804767250277672   T   T   T
  0.2482776400908691  0.3384751143455631  0.2940508855943733   F   F   F
  0.2563250961122830  0.6651989135485731  0.7881334854602752   T   T   T
  0.2529393265911324  0.1562871775448329  0.2840879437192854   F   F   F
  0.7510621665232691  0.1596115867181354  0.2145034364513805   F   F   F
  0.7555249387965262  0.6639334997052373  0.7158127942893557   F   F   F
  0.7479634246855937  0.3360898656584368  0.2121736015414371   F   F   F
  0.7462725649585451  0.8417126331382789  0.7148502892317126   F   F   F
  0.2925150187149017  0.7543897169868509  0.0453759474826646   T   T   T
  0.2172356796242454  0.2496284188398121  0.5393517004155370   F   F   F
  0.7093042434657590  0.2481663155049461  0.9622036977024564   F   F   F
  0.7942972189308080  0.7513231975469310  0.4609015584265705   F   F   F
  0.1878207768009693  0.8314245014941951  0.0041823946323456   T   T   T
  0.3062946197896679  0.3465410019493191  0.5118574732369439   F   F   F
  0.1943102104344420  0.6673447278539343  0.0163046995320540   T   T   T
  0.3096694477446675  0.1561121521065516  0.5118617030806121   F   F   F
  0.8101108637040042  0.1637914435004291  0.9860500675916910   F   F   F
  0.6929123795215517  0.6696605016814914  0.4925935632813960   F   F   F
  0.8062448346801716  0.3366665924852512  0.9914791106070879   F   F   F
  0.6886160972192599  0.8290511130366340  0.4814063222169409   F   F   F
  0.0891999133810073  0.7459650461566374  0.0386127914719481   T   T   T
  0.3982725593922609  0.2530474727178671  0.5471787075555241   F   F   F
  0.9072568478086964  0.2532978284297513  0.9619253827680581   F   F   F
  0.5875707808013444  0.7452637633787209  0.4497748369909950   T   T   T
  0.0688759802988360  0.8577182549861928  0.9352010568569027   T   T   T
  0.4262127446029496  0.3634992185609889  0.4426365878724496   F   F   F
  0.0792036464473462  0.6281121928676714  0.9460091330337101   T   T   T
  0.4266627836391450  0.1492970828241056  0.4291522301522761   F   F   F
  0.9275135876326885  0.1402384020402181  0.0619417363240302   F   F   F
  0.5758423495993432  0.6347501349157112  0.5591588122698118   T   T   T
  0.9239731090090899  0.3686363824358594  0.0587617462970158   F   F   F
  0.5734334495415659  0.8523068408741189  0.5658498285084351   T   T   T
  0.1200963568350867  0.8342440670461509  0.7536628911230091   T   T   T
  0.3761262934644662  0.3373585743842824  0.2606990216219103   F   F   F
  0.1273363986600787  0.6620694182379044  0.7661888457069993   T   T   T
  0.3796906615273983  0.1625823938784237  0.2423319042257077   F   F   F
  0.8790909889168077  0.1628039735761604  0.2461253697631491   F   F   F
  0.6265368521877807  0.6620781676520702  0.7405377662982647   T   T   T
  0.8764143967161786  0.3378253727498901  0.2408053456132322   F   F   F
  0.6194143995008740  0.8354559778767374  0.7525799776717910   T   T   T
  0.1983256329419563  0.7488563522990327  0.6620231989526378   T   T   T
  0.2990251524596701  0.2525197466252962  0.1641946201377209   F   F   F
  0.8025983455757597  0.2501129328049032  0.3381666924228384   F   F   F
  0.6993030177096031  0.7493781480862935  0.8405365562802700   F   F   F
  0.4257882959985153  0.0631200877235187  0.6841960696975846   F   F   F
  0.0728036690678070  0.5653716679184724  0.1972930541362251   T   T   T
  0.4269723200364623  0.4376707500233721  0.6970710641749847   F   F   F
  0.0747520444709957  0.9331758418596152  0.1864199064372667   T   T   T
  0.5729080340081055  0.9353609321242753  0.3104952880360801   T   T   T
  0.9273966072424216  0.4352512401277906  0.8077980639826876   F   F   F
  0.5739837103585368  0.5612463447760162  0.3068319805571243   T   T   T
  0.9252287840629592  0.0671305760812260  0.8103093289461540   F   F   F
  0.3209778071766536  0.0321505307863035  0.8387431159122301   F   F   F
  0.1770664797239836  0.5310943902534981  0.3482041057201603   T   T   T
  0.3225656094406588  0.4691970664577667  0.8493128648219539   F   F   F
  0.1776482956500905  0.9708379921080611  0.3408441127333082   T   T   T
  0.6787285798067302  0.9693753001917358  0.1584334140476287   F   F   F
  0.8223729918770246  0.4684696383413396  0.6557599819813191   F   F   F
  0.6780609553677337  0.5294746977815308  0.1547970256143003   F   F   F
  0.8199796084045303  0.0313261844507196  0.6578191282008348   F   F   F
  0.2775116750688014  0.0546209785447402  0.0561246842288838   F   F   F
  0.2238217004927778  0.5493944334713164  0.5673486970863234   T   T   T
  0.2767111911803894  0.4527763687271644  0.0687973184828579   F   F   F
  0.2199261604513392  0.9473145837255382  0.5587586525146850   T   T   T
  0.7212531054286231  0.9495809624016260  0.9401384056273585   F   F   F
  0.7767912836494162  0.4496717482141150  0.4363650357279596   F   F   F
  0.7234755773045691  0.5479733310745871  0.9349906262634420   F   F   F
  0.7786603976803121  0.0505866124916068  0.4383209460967734   F   F   F
  0.1220940393177941  0.0576387320505845  0.0466628560347502   F   F   F
  0.3795669178827251  0.5593091059343512  0.5544832763658334   T   T   T
  0.1213009935213876  0.4443108066953059  0.0539840000324148   F   F   F
  0.3756126564198417  0.9382469704734323  0.5470791861283314   T   T   T
  0.8764204766866044  0.9433070245068933  0.9500103664304334   F   F   F
  0.6213515494100506  0.4387361609842344  0.4483728766297475   F   F   F
  0.8793824198316642  0.5578342818313047  0.9484918813626280   F   F   F
  0.6230223843840861  0.0586621751685641  0.4496779581470420   F   F   F
  0.0744900423354409  0.0371558294415308  0.8240355958459489   F   F   F
  0.4248408181123561  0.5396886945426023  0.3319661206931152   T   T   T
  0.0759050018467065  0.4604811359825405  0.8289214250034220   F   F   F
  0.4232135786164121  0.9619024626576494  0.3248577374749706   T   T   T
  0.9251076834604746  0.9607688561368803  0.1724501356025385   F   F   F
  0.5770856735129541  0.4591424537481501  0.6719829705662974   F   F   F
  0.9234526734777830  0.5409479829046973  0.1747106620580823   F   F   F
  0.5761280339978185  0.0369550544652100  0.6718882752718400   F   F   F
  0.2010403318350455  0.0720122919566961  0.7103395896183073   F   F   F
  0.2968764602037596  0.5770406397477623  0.2204665094756668   T   T   T
  0.2044718955300979  0.4243853501249291  0.7181956721495482   F   F   F
  0.2960972875139559  0.9325481106532213  0.2092190649803417   T   T   T
  0.7983637488043769  0.9268941439739038  0.2860303849380870   F   F   F
  0.7036986004431114  0.4233110755154001  0.7848737779827530   F   F   F
  0.7951863158223418  0.5751116616583332  0.2862380460677585   F   F   F
  0.7008543197813992  0.0726939905854991  0.7868735139048368   F   F   F
  0.4260542287842007  0.8299703435209610  0.6972779007501643   T   T   T
  0.0742321574068967  0.3291227919459487  0.1909263067494535   F   F   F
  0.4297968538896145  0.6707632484410715  0.7003638278032767   T   T   T
  0.0753245184302571  0.1719642738565099  0.1909524077118263   F   F   F
  0.5745682647169943  0.1696553687426743  0.3025227942890467   F   F   F
  0.9264687810316445  0.6719379406026178  0.8081033673370115   F   F   F
  0.5735216497706617  0.3272426650101607  0.3071577223565143   F   F   F
  0.9223545805895981  0.8298808725804747  0.8026654484564517   F   F   F
  0.3135350444811741  0.8750767661572930  0.8316978546357725   T   T   T
  0.1823691470615358  0.3734492718300757  0.3387433502953030   F   F   F
  0.3177372827154821  0.6271093238084694  0.8409675814854141   T   T   T
  0.1851106991292824  0.1275475629615812  0.3319466640946231   F   F   F
  0.6860593882759431  0.1257703970196289  0.1653773742964333   F   F   F
  0.8176342921106823  0.6257445042058336  0.6649877157448714   F   F   F
  0.6837239486331228  0.3725208104472841  0.1646725697123799   F   F   F
  0.8114212397675828  0.8748321845265536  0.6650983202521203   F   F   F
  0.2647143922712851  0.8307386073938050  0.0363613329635615   T   T   T
  0.2302590746223316  0.3295435221428207  0.5410449599514280   F   F   F
  0.2715326610084779  0.6753849231929991  0.0455220324853008   T   T   T
  0.2327093871604049  0.1702119960996527  0.5377307600169772   F   F   F
  0.7322184470329631  0.1704461630360683  0.9604535265457841   F   F   F
  0.7705148943694624  0.6736830008558314  0.4619503025558487   F   F   F
  0.7292674700146691  0.3267689891922387  0.9617142478945340   F   F   F
  0.7672321771014339  0.8278412966383328  0.4589306655285910   F   F   F
  0.1094235136995515  0.8245040272499514  0.0271881059906058   T   T   T
  0.3838128441234261  0.3328167507032376  0.5348645897704642   F   F   F
  0.1154358390539518  0.6688370560078422  0.0358396876420314   T   T   T
  0.3871664783574928  0.1732929918343373  0.5284274486333729   F   F   F
  0.8885910724512129  0.1741791652206004  0.9687626447969251   F   F   F
  0.6150729277380461  0.6682627453274155  0.4660287432629644   T   T   T
  0.8845682660458465  0.3313365692362282  0.9688592303131571   F   F   F
  0.6095979744268336  0.8240893951617924  0.4665559783365475   T   T   T
  0.0672502573413561  0.8777499089564025  0.8171444898600854   T   T   T
  0.4296187918833070  0.3807904396791315  0.3235770832407638   F   F   F
  0.0723655298653090  0.6185546218424663  0.8254893261780624   T   T   T
  0.4298386864331647  0.1219448030402290  0.3147383788259859   F   F   F
  0.9313303583366448  0.1204255304898822  0.1797556592387366   F   F   F
  0.5737462883246157  0.6177110802420762  0.6781740989810794   T   T   T
  0.9294278456908103  0.3821823535097053  0.1786128344654685   F   F   F
  0.5702221813011134  0.8780630318577495  0.6812821244397185   T   T   T
  0.1913272687165431  0.8262009207986742  0.6994653917851407   T   T   T
  0.3043878125403197  0.3283029345053663  0.2088102140072223   F   F   F
  0.1965757158984455  0.6733420927799074  0.7079328010963949   T   T   T
  0.3062584209198889  0.1744276639114446  0.1973710375007229   F   F   F
  0.8075901907811343  0.1731066724234296  0.2981673193236105   F   F   F
  0.6967236563786159  0.6731212839246083  0.7969698192598074   F   F   F
  0.8056990289316843  0.3264431970004651  0.2949562906770211   F   F   F
  0.6921280280513002  0.8264513841877630  0.8014150331501497   F   F   F
  0.3104800210942584  0.7652696575551103  0.3552996116868527   T   T   T
  0.4001166499341330  0.7983280726427070  0.2622019955681929   T   T   T
  0.3758117973087829  0.7146979367870373  0.4714021234346178   T   T   T
  0.4674644692206458  0.7497679410310119  0.3907356545605945   T   T   T
  0.4395760443025062  0.8037293354472663  0.0905749966406916   T   T   T
  0.4579873610629874  0.7219183384173761  0.2532040805657266   T   T   T
  0.4052938017445379  0.7819074764178847  0.0508437410971731   T   T   T
  0.4658517688550442  0.7658872893070195  0.1172479901345336   T   T   T
 
  0.00000000E+00  0.00000000E+00  0.00000000E+00
  0.00000000E+00  0.00000000E+00  0.00000000E+00
  0.00000000E+00  0.00000000E+00  0.00000000E+00
  0.00000000E+00  0.00000000E+00  0.00000000E+00
  0.00000000E+00  0.00000000E+00  0.00000000E+00
  0.00000000E+00  0.00000000E+00  0.00000000E+00
  0.00000000E+00  0.00000000E+00  0.00000000E+00
  0.00000000E+00  0.00000000E+00  0.00000000E+00
  0.00000000E+00  0.00000000E+00  0.00000000E+00
  0.00000000E+00  0.00000000E+00  0.00000000E+00
  0.00000000E+00  0.00000000E+00  0.00000000E+00
  0.00000000E+00  0.00000000E+00  0.00000000E+00
  0.00000000E+00  0.00000000E+00  0.00000000E+00
  0.00000000E+00  0.00000000E+00  0.00000000E+00
  0.00000000E+00  0.00000000E+00  0.00000000E+00
  0.00000000E+00  0.00000000E+00  0.00000000E+00
  0.00000000E+00  0.00000000E+00  0.00000000E+00
  0.00000000E+00  0.00000000E+00  0.00000000E+00
  0.00000000E+00  0.00000000E+00  0.00000000E+00
  0.00000000E+00  0.00000000E+00  0.00000000E+00
  0.00000000E+00  0.00000000E+00  0.00000000E+00
  0.00000000E+00  0.00000000E+00  0.00000000E+00
  0.00000000E+00  0.00000000E+00  0.00000000E+00
  0.00000000E+00  0.00000000E+00  0.00000000E+00
  0.00000000E+00  0.00000000E+00  0.00000000E+00
  0.00000000E+00  0.00000000E+00  0.00000000E+00
  0.00000000E+00  0.00000000E+00  0.00000000E+00
  0.00000000E+00  0.00000000E+00  0.00000000E+00
  0.00000000E+00  0.00000000E+00  0.00000000E+00
  0.00000000E+00  0.00000000E+00  0.00000000E+00
  0.00000000E+00  0.00000000E+00  0.00000000E+00
  0.00000000E+00  0.00000000E+00  0.00000000E+00
  0.00000000E+00  0.00000000E+00  0.00000000E+00
  0.00000000E+00  0.00000000E+00  0.00000000E+00
  0.00000000E+00  0.00000000E+00  0.00000000E+00
  0.00000000E+00  0.00000000E+00  0.00000000E+00
  0.00000000E+00  0.00000000E+00  0.00000000E+00
  0.00000000E+00  0.00000000E+00  0.00000000E+00
  0.00000000E+00  0.00000000E+00  0.00000000E+00
  0.00000000E+00  0.00000000E+00  0.00000000E+00
  0.00000000E+00  0.00000000E+00  0.00000000E+00
  0.00000000E+00  0.00000000E+00  0.00000000E+00
  0.00000000E+00  0.00000000E+00  0.00000000E+00
  0.00000000E+00  0.00000000E+00  0.00000000E+00
  0.00000000E+00  0.00000000E+00  0.00000000E+00
  0.00000000E+00  0.00000000E+00  0.00000000E+00
  0.00000000E+00  0.00000000E+00  0.00000000E+00
  0.00000000E+00  0.00000000E+00  0.00000000E+00
  0.00000000E+00  0.00000000E+00  0.00000000E+00
  0.00000000E+00  0.00000000E+00  0.00000000E+00
  0.00000000E+00  0.00000000E+00  0.00000000E+00
  0.00000000E+00  0.00000000E+00  0.00000000E+00
  0.00000000E+00  0.00000000E+00  0.00000000E+00
  0.00000000E+00  0.00000000E+00  0.00000000E+00
  0.00000000E+00  0.00000000E+00  0.00000000E+00
  0.00000000E+00  0.00000000E+00  0.00000000E+00
  0.00000000E+00  0.00000000E+00  0.00000000E+00
  0.00000000E+00  0.00000000E+00  0.00000000E+00
  0.00000000E+00  0.00000000E+00  0.00000000E+00
  0.00000000E+00  0.00000000E+00  0.00000000E+00
  0.00000000E+00  0.00000000E+00  0.00000000E+00
  0.00000000E+00  0.00000000E+00  0.00000000E+00
  0.00000000E+00  0.00000000E+00  0.00000000E+00
  0.00000000E+00  0.00000000E+00  0.00000000E+00
  0.00000000E+00  0.00000000E+00  0.00000000E+00
  0.00000000E+00  0.00000000E+00  0.00000000E+00
  0.00000000E+00  0.00000000E+00  0.00000000E+00
  0.00000000E+00  0.00000000E+00  0.00000000E+00
  0.00000000E+00  0.00000000E+00  0.00000000E+00
  0.00000000E+00  0.00000000E+00  0.00000000E+00
  0.00000000E+00  0.00000000E+00  0.00000000E+00
  0.00000000E+00  0.00000000E+00  0.00000000E+00
  0.00000000E+00  0.00000000E+00  0.00000000E+00
  0.00000000E+00  0.00000000E+00  0.00000000E+00
  0.00000000E+00  0.00000000E+00  0.00000000E+00
  0.00000000E+00  0.00000000E+00  0.00000000E+00
  0.00000000E+00  0.00000000E+00  0.00000000E+00
  0.00000000E+00  0.00000000E+00  0.00000000E+00
  0.00000000E+00  0.00000000E+00  0.00000000E+00
  0.00000000E+00  0.00000000E+00  0.00000000E+00
  0.00000000E+00  0.00000000E+00  0.00000000E+00
  0.00000000E+00  0.00000000E+00  0.00000000E+00
  0.00000000E+00  0.00000000E+00  0.00000000E+00
  0.00000000E+00  0.00000000E+00  0.00000000E+00
  0.00000000E+00  0.00000000E+00  0.00000000E+00
  0.00000000E+00  0.00000000E+00  0.00000000E+00
  0.00000000E+00  0.00000000E+00  0.00000000E+00
  0.00000000E+00  0.00000000E+00  0.00000000E+00
  0.00000000E+00  0.00000000E+00  0.00000000E+00
  0.00000000E+00  0.00000000E+00  0.00000000E+00
  0.00000000E+00  0.00000000E+00  0.00000000E+00
  0.00000000E+00  0.00000000E+00  0.00000000E+00
  0.00000000E+00  0.00000000E+00  0.00000000E+00
  0.00000000E+00  0.00000000E+00  0.00000000E+00
  0.00000000E+00  0.00000000E+00  0.00000000E+00
  0.00000000E+00  0.00000000E+00  0.00000000E+00
  0.00000000E+00  0.00000000E+00  0.00000000E+00
  0.00000000E+00  0.00000000E+00  0.00000000E+00
  0.00000000E+00  0.00000000E+00  0.00000000E+00
  0.00000000E+00  0.00000000E+00  0.00000000E+00
  0.00000000E+00  0.00000000E+00  0.00000000E+00
  0.00000000E+00  0.00000000E+00  0.00000000E+00
  0.00000000E+00  0.00000000E+00  0.00000000E+00
  0.00000000E+00  0.00000000E+00  0.00000000E+00
  0.00000000E+00  0.00000000E+00  0.00000000E+00
  0.00000000E+00  0.00000000E+00  0.00000000E+00
  0.00000000E+00  0.00000000E+00  0.00000000E+00
  0.00000000E+00  0.00000000E+00  0.00000000E+00
  0.00000000E+00  0.00000000E+00  0.00000000E+00
  0.00000000E+00  0.00000000E+00  0.00000000E+00
  0.00000000E+00  0.00000000E+00  0.00000000E+00
  0.00000000E+00  0.00000000E+00  0.00000000E+00
  0.00000000E+00  0.00000000E+00  0.00000000E+00
  0.00000000E+00  0.00000000E+00  0.00000000E+00
  0.00000000E+00  0.00000000E+00  0.00000000E+00
  0.00000000E+00  0.00000000E+00  0.00000000E+00
  0.00000000E+00  0.00000000E+00  0.00000000E+00
  0.00000000E+00  0.00000000E+00  0.00000000E+00
  0.00000000E+00  0.00000000E+00  0.00000000E+00
  0.00000000E+00  0.00000000E+00  0.00000000E+00
  0.00000000E+00  0.00000000E+00  0.00000000E+00
  0.00000000E+00  0.00000000E+00  0.00000000E+00
  0.00000000E+00  0.00000000E+00  0.00000000E+00
  0.00000000E+00  0.00000000E+00  0.00000000E+00
  0.00000000E+00  0.00000000E+00  0.00000000E+00
  0.00000000E+00  0.00000000E+00  0.00000000E+00
  0.00000000E+00  0.00000000E+00  0.00000000E+00
  0.00000000E+00  0.00000000E+00  0.00000000E+00
  0.00000000E+00  0.00000000E+00  0.00000000E+00
  0.00000000E+00  0.00000000E+00  0.00000000E+00
  0.00000000E+00  0.00000000E+00  0.00000000E+00
  0.00000000E+00  0.00000000E+00  0.00000000E+00
  0.00000000E+00  0.00000000E+00  0.00000000E+00
  0.00000000E+00  0.00000000E+00  0.00000000E+00
  0.00000000E+00  0.00000000E+00  0.00000000E+00
  0.00000000E+00  0.00000000E+00  0.00000000E+00
  0.00000000E+00  0.00000000E+00  0.00000000E+00
  0.00000000E+00  0.00000000E+00  0.00000000E+00
  0.00000000E+00  0.00000000E+00  0.00000000E+00
  0.00000000E+00  0.00000000E+00  0.00000000E+00
  0.00000000E+00  0.00000000E+00  0.00000000E+00
  0.00000000E+00  0.00000000E+00  0.00000000E+00
  0.00000000E+00  0.00000000E+00  0.00000000E+00
  0.00000000E+00  0.00000000E+00  0.00000000E+00
  0.00000000E+00  0.00000000E+00  0.00000000E+00
  0.00000000E+00  0.00000000E+00  0.00000000E+00
  0.00000000E+00  0.00000000E+00  0.00000000E+00
  0.00000000E+00  0.00000000E+00  0.00000000E+00
  0.00000000E+00  0.00000000E+00  0.00000000E+00
  0.00000000E+00  0.00000000E+00  0.00000000E+00
  0.00000000E+00  0.00000000E+00  0.00000000E+00
  0.00000000E+00  0.00000000E+00  0.00000000E+00
  0.00000000E+00  0.00000000E+00  0.00000000E+00
  0.00000000E+00  0.00000000E+00  0.00000000E+00
  0.00000000E+00  0.00000000E+00  0.00000000E+00
  0.00000000E+00  0.00000000E+00  0.00000000E+00
  0.00000000E+00  0.00000000E+00  0.00000000E+00
  0.00000000E+00  0.00000000E+00  0.00000000E+00
  0.00000000E+00  0.00000000E+00  0.00000000E+00
  0.00000000E+00  0.00000000E+00  0.00000000E+00
  0.00000000E+00  0.00000000E+00  0.00000000E+00
  0.00000000E+00  0.00000000E+00  0.00000000E+00
  0.00000000E+00  0.00000000E+00  0.00000000E+00
  0.00000000E+00  0.00000000E+00  0.00000000E+00