 O Si Ru  C  O 
 1.0000000000000000
    20.3096463179830877    0.0000000000000000    0.0000000000000000
     0.0000000000000000   19.8625212307842212    0.0000000000000000
     0.0000000000000000    0.0000000000000000   13.3711533343531652
 192  96   2   1   2
Selective dynamics
Cartesian
 10.2140286612143978  1.4612074221125935  9.4524912293543544   F   F   F
 20.2598168463293469 11.3654459048333525  2.7911033731631516   F   F   F
 10.2149912517608747  8.4715405385021594  9.4549303065663803   F   F   F
 20.2561037358820109 18.4256483359124630  2.7844056494333236   T   T   T
 10.1061091362350925 18.4237905918070801  3.8883005151103558   T   T   T
  0.0653653510746623  8.4799667396668497 10.5918384380252970   F   F   F
 10.1085244625631780 11.3618429051266734  3.8829615550580181   F   F   F
  0.0648718793084849  1.4493061103013551 10.5861534436735223   F   F   F
  7.8772582403339273  1.3299083523813859 10.6508565787683818   F   F   F
  2.3026264365751103 11.2851750082270623  3.9637094560819452   F   F   F
  7.8772676535330630  8.6013410454646557 10.6511159906770008   F   F   F
  2.2917978848962979 18.5134444883101601  3.9710001212427199   T   T   T
 12.4493782341131176 18.5164925475231428  2.7068110484849286   T   T   T
 18.0288195650111582  8.5951923042193865  9.4086238576571102   F   F   F
 12.4616365232588997 11.2874424697585773  2.7189564257506249   F   F   F
 18.0270806472279830  1.3380614555368984  9.4066314841441283   F   F   F
  8.1424643129527254  2.7597365002113192  8.4481355620228786   F   F   F
  1.9949452376991430 12.6976533367798368  1.7550367094760475   T   T   T
  8.1450307171589031  7.1714192660284715  8.4480726215912867   F   F   F
  1.9954308295550929 17.0981924613015366  1.7673044116788890   T   T   T
 12.1640116623061516 17.1083518940100490  4.9224820103381459   T   T   T
 18.3178347417347318  7.1711853188375470 11.6138248124970627   F   F   F
 12.1484389468889571 12.6862867735911866  4.9325152619981711   T   T   T
 18.3204986126270484  2.7597357059301473 11.6130357306077538   F   F   F
  8.2453217264216541  0.0942328933816843  8.3125131076163576   F   F   F
  1.9330001870501461 10.0280638082446369  1.6413042203645412   F   F   F
  8.2458449011981436  9.8374247211634387  8.3137071337101158   F   F   F
  1.9361873260175706 19.7647906973261804  1.6411922406433315   T   T   T
 12.0791887765881309 19.7801424135097967  5.0211287311115349   T   T   T
 18.4069876295485990  9.8395915151564068 11.7394063101783974   F   F   F
 12.0857680430316012 10.0177618332003924  5.0298638845162227   F   F   F
 18.4070762825217145  0.0909416635698920 11.7358507892365367   F   F   F
  6.5805578203639703  0.7595568679342183 12.8874257494970905   F   F   F
  3.5815765885436592 10.6836162186419230  6.2062775045296492   F   F   F
  6.5816235846793258  9.1732172012423181 12.8880074153974995   F   F   F
  3.5809477010382973 19.1026079219852640  6.2087270728504222   T   T   T
 13.7478269293724669 19.1053817966635542  0.4797403415589458   T   T   T
 16.7336553646360215  9.1679974728974827  7.1716575980291921   F   F   F
 13.7420619796454666 10.6877488864388717  0.4819143000997855   F   F   F
 16.7313168327003261  0.7623537665588327  7.1703376720929306   F   F   F
  6.5202000930501756 18.9355944463879382 10.8038519163629232   T   T   T
  3.6085339398791882  9.0068622117965340  4.1035761529627051   F   F   F
  6.5342043169422821 10.8573126430475835 10.7926940712658936   F   F   F
  3.6098209368509919  0.9241721336172430  4.1041493094752495   F   F   F
 13.7759395302992331  0.9221701721338319  2.5803922459711019   F   F   F
 16.6841780982532910 10.8525899939642265  9.2665100041641999   F   F   F
 13.7768689035377498  9.0100878559165558  2.5818747268392781   F   F   F
 16.6894421646225197 18.9418075707005933  9.2654941764931760   T   T   T
  5.2062911975100903  1.3590456032810472 10.7206731539995808   F   F   F
  4.9737359571695263 11.2658484067490363  4.0511943445644309   F   F   F
  5.2065904852583156  8.5735150548868724 10.7217352937853594   F   F   F
  4.9570673029830061 18.5116028832442261  4.0479341003337899   T   T   T
 15.1207583989499774 18.5091101082423108  2.6502244767208882   T   T   T
 15.3589875075734419  8.5694534426315307  9.3383855686852844   F   F   F
 15.1322928249124509 11.2776951123111360  2.6397070105538325   F   F   F
 15.3578995915240437  1.3626279147942943  9.3368606394781661   F   F   F
  5.9374388476028948  2.5052698539558511  1.3941930146885659   F   F   F
  4.2341346795123185 12.4397614255132574  8.0720053739261743   T   T   T
  5.9389931851651587  7.4276909472306780  1.3956145327622875   F   F   F
  4.2480968789053941 17.3577421365536395  8.0823608009162076   T   T   T
 14.3986034202510798 17.3574496157798599 11.9681281003161466   T   T   T
 16.0865115002168153  7.4314447164779907  5.2890807881076176   F   F   F
 14.4014773837096239 12.4365936684179417 11.9753297621052042   T   T   T
 16.0818444616822234  2.4994916565557586  5.2887564901280291   F   F   F
  4.0805737351856797  0.8508090364111367  0.3930910651536166   F   F   F
  6.0867364119082437 10.7792614838743486  7.0788386127282594   F   F   F
  4.0829961227516547  9.0832722261846470  0.3960294463927935   F   F   F
  6.0881501971028893 19.0170184822844455  7.0697728519793710   T   T   T
 16.2425805536843733 19.0243176950484987 12.9684352029208991   T   T   T
 14.2328146084257696  9.0831821995267656  6.2920802296678566   F   F   F
 16.2417476788256359 10.7673626848121504 12.9744342469860374   F   F   F
 14.2298777168982262  0.8440769200072981  6.2885029506295007   F   F   F
  6.0047474282085185 19.7736773762998084  1.9463670073222235   T   T   T
  4.1473571314737114  9.8667693555992386  8.6527133154307538   F   F   F
  6.0269128435682404 10.0007111020494648  1.9631131598503109   F   F   F
  4.1489096857703034  0.0656355467846207  8.6506581832244329   F   F   F
 14.2892492031601357  0.0617375938033767 11.3987975736797527   F   F   F
 16.1786837083053321 10.0068175029941546  4.7295020341880551   F   F   F
 14.2928807377829727  9.8717516426412928 11.4009825233836732   F   F   F
 16.1816253497590203 19.7848345580546017  4.7288966706551969   T   T   T
  2.2201120071735794  2.5275206700732462  1.2902433849445565   F   F   F
  7.9110800371644396 12.4491136341884356  8.0286326871514486   T   T   T
  2.2262602927002599  7.4036138957738462  1.2949071454913554   F   F   F
  7.9127840320695952 17.3417975595165146  8.0336189884109803   T   T   T
 18.0930225912865232 17.3320917860541748 12.0753115539106428   T   T   T
 12.3770758045713158  7.3964868705175002  5.3999967801118247   F   F   F
 18.0909442286244229 12.4599040119872129 12.0736988520284498   T   T   T
 12.3767817822403430  2.5350843309425279  5.3987447484199063   F   F   F
  1.6878298050996394  0.9436876214757492 12.6166018257396768   F   F   F
  8.4830789103905992 10.9240163633107059  5.9347019505327792   F   F   F
  1.6894716931099312  8.9848586121954472 12.6210282433344165   F   F   F
  8.4854236847211535 18.8732375469006080  5.9404094916406311   T   T   T
 18.6365184341992602 18.9012963521389921  0.7493640862761421   T   T   T
 11.8362727505844152  8.9995601744527622  7.4295153203012481   F   F   F
 18.6308793819963689 10.9014580344839906  0.7566144405018084   F   F   F
 11.8327799778789586  0.9293929993784501  7.4257242103767274   F   F   F
  2.6325993985949014  1.5882624236753935 10.2081043269922187   F   F   F
  7.5426080573273513 11.5347203195897894  3.5075868661156067   F   F   F
  2.6327765248231021  8.3430748669890349 10.2112281089057788   F   F   F
  7.5357833266433341 18.2890700180126586  3.5098445365980862   T   T   T
 17.6916531448306635 18.2656045804415861  3.1601415640785047   T   T   T
 12.7808481285903035  8.3579825788889082  9.8368155073626227   F   F   F
 17.6970663191847208 11.5297798748418181  3.1755157886764422   F   F   F
 12.7798304276962611  1.5751830861228340  9.8312727933145130   F   F   F
  1.5244289769867849 19.0828522453059790 10.5898514653621287   T   T   T
  8.6135876960711339  9.1640748876767351  3.9420085967513425   F   F   F
  1.5192204341738562 10.7095476697217968 10.5942267954957341   F   F   F
  8.6152798074883350  0.7676112288564517  3.9388478344966229   F   F   F
 18.7825186996108755  0.7773158049778960  2.7639765920008736   F   F   F
 11.6379358580713372 10.7166150379773804  9.4604818782165250   F   F   F
 18.7796759337458994  9.1527169887034674  2.7648310947112775   F   F   F
 11.6336360369593699 19.0795735928068204  9.4590688230215711   T   T   T
  4.3905883305937543  2.7289212042216349  8.6421393569796852   F   F   F
  5.7205220469569582 12.6616191106971208  1.9794917212871188   T   T   T
  4.3899656139535983  7.2036286029263037  8.6435733585134944   F   F   F
  5.7635883316168934 17.1026450232811698  2.0090262591560832   T   T   T
 15.9475133326412042 17.1158496246800986  4.7213508777734852   T   T   T
 14.5219116837819868  7.2064552503486494 11.4122095178366383   F   F   F
 15.9345037388221744 12.6727598443802787  4.7192792093216935   T   T   T
 14.5178662719092380  2.7268986549474379 11.4091146328479329   F   F   F
 10.0993271370882312 16.9208040581456132  9.5522516616265349   T   T   T
  0.0743013523706765  7.0427483168264988  2.8512742433357938   F   F   F
 10.0878891691350319 12.8646803991677352  9.5634151839909940   T   T   T
  0.0718664310568477  2.8909902706025719  2.8500524637691873   F   F   F
 10.2305530171650823  2.8716870053585488  3.8301269558381121   F   F   F
 20.2470049036505486 12.8382469441830942 10.5247298549160853   T   T   T
 10.2314057792254456  7.0613580318618769  3.8307838639189304   F   F   F
 20.2586352659778512 16.9482024333234982 10.5408072434254780   T   T   T
  7.7255209894586683 16.5852266986214438 10.5853571819841044   T   T   T
  2.4580129003728364  6.6303292938053220  3.8404735185162600   F   F   F
  7.7098532964985411 13.2207081522644625 10.5768591087967359   T   T   T
  2.4566273640697909  3.2982779275239231  3.8371125872584027   F   F   F
 12.6140452461295158  3.2949619472137148  2.8486438506365737   F   F   F
 17.8704031061076414 13.2134176383454385  9.5186272100233253   T   T   T
 12.6145450541533215  6.6371385369418938  2.8500425454479936   F   F   F
 17.8904196853030051 16.5870077687613140  9.5169331040484550   T   T   T
  8.5493192995851164 14.8971261437982427  8.7238974165816128   T   T   T
  1.5154892205650661  4.9660877726667225  1.9944065676699123   F   F   F
 11.6527319449627473  4.9656963890917618  4.6790641544156442   F   F   F
 18.7797516316438937 14.8949992554045263 11.3692636454043203   T   T   T
  6.4167612359563213 17.1892524980736994 12.7930990309473156   T   T   T
  3.7194722719184967  7.2621216135757267  6.0795801683334840   F   F   F
  6.4077437476398353 12.6092525897755579 12.7816507048080883   T   T   T
  3.7181085145515964  2.6718076017695296  6.0784125182022990   F   F   F
 13.8725399922007497  2.6712600988049995  0.6053614739176788   F   F   F
 16.6111006650519499 12.6009481670057362  7.2818167343924181   T   T   T
 13.8732238377409356  7.2602554410192122  0.6074365302254003   F   F   F
 16.6250914387514328 17.1893713993047861  7.2823125239717710   T   T   T
  5.0702628445774556 16.7368513763848128 10.5570582634861605   T   T   T
  5.1043915328705953  6.8310397316151912  3.8623865883385538   F   F   F
  5.0560843622808651 13.0407681854172406 10.5489077012185941   T   T   T
  5.1027910413323356  3.1015951305397955  3.8611344287704683   F   F   F
 15.2607984736370934  3.1055345332455775  2.8183379166704281   F   F   F
 15.2238360987498709 13.0465177994260504  9.5048592650242938   T   T   T
 15.2613465683420824  6.8267857667580971  2.8202493306045295   F   F   F
 15.2435500724084498 16.7393942005696132  9.5077666727051611   T   T   T
  6.0389558306965716 14.8954573362287785  0.7341160424370459   T   T   T
  4.1381180870697420  4.9664292429932262  7.3182068104471272   F   F   F
 14.2904529836306775  4.9660827742362921 12.7351774025680751   F   F   F
 16.0878928278111921 14.8947711770043334  6.0837236795084779   T   T   T
  3.9784947102431105 16.4797300171776762  0.1284610123931571   T   T   T
  6.1736461500843793  6.5973586684180878  6.7700888450312000   F   F   F
  3.9697348644488724 13.3368039994440579  0.1006712167621201   T   T   T
  6.1731886311850550  3.3346197732392056  6.7679625794839620   F   F   F
 16.3242323587716704  3.3279643009143305 13.2634838625197702   F   F   F
 14.1334148153821140 13.1472572951698314  6.6144700412879907   T   T   T
 16.3252856880235342  6.6022999877496185 13.2683338651727016   F   F   F
 14.1436020263583035 16.6542571857545312  6.6162625608059908   T   T   T
  1.8408836011364604 14.9034340314757365  0.2973569796480394   T   T   T
  8.2674169736620833  4.9652534957746797  6.9996380812816552   F   F   F
 18.4174100102951179  4.9653499401862691 13.0655346877319545   F   F   F
 12.1692130664540397 14.9038016049507753  6.4103623247538044   T   T   T
  1.6802015527755956 17.2912180464089040 12.5140873685281644   T   T   T
  8.5234128237158391  7.3309298679475443  5.8331579678329870   F   F   F
  1.6640332038814034 12.5183302345480012 12.5048067358367696   T   T   T
  8.5225746188151543  2.5989782273453264  5.8328723977821868   F   F   F
 18.6602418849607439  2.5969858697068400  0.8610286820397660   F   F   F
 11.7661648575208790 12.5336660712242622  7.5504694384372506   T   T   T
 18.6641860204246548  7.3331677230099652  0.8610747185501268   F   F   F
 11.7708717773207052 17.2773214799144093  7.5359501242712277   T   T   T
  2.4963042315551838 16.6934950781523597 10.0174401724082998   T   T   T
  7.6814975066438480  6.7657353726040119  3.3372029544970929   F   F   F
  2.4839804135279402 13.1013742420631676 10.0063008438132020   T   T   T
  7.6798862460298061  3.1650613992487968  3.3372397622941867   F   F   F
 17.8334377771874735  3.1728959652495465  3.3601989269266976   F   F   F
 12.6466251035482706 13.0882506364340685 10.0408789304196002   T   T   T
 17.8349721093001818  6.7551827139538094  3.3586660207861669   F   F   F
 12.6617030492873397 16.7090721457400306 10.0184454485076682   T   T   T
  4.0877437074824696 14.8970254681152330  8.9111743431085468   T   T   T
  6.0860643728149872  4.9661817118676810  2.2424462780513075   F   F   F
 16.2291312471407920  4.9652835879688482  4.4528943527959033   F   F   F
 14.2329082063905084 14.8970790989813793 11.1299981199015043   T   T   T
  8.6176280239421725  1.4027881651609317  9.2029910019506502   F   F   F
  1.5445803454007279 11.3358225720535337  2.5242507186506220   F   F   F
  8.6186878309368353  8.5285335204865547  9.2037070500373730   F   F   F
  1.5390052109731500 18.4630467668295282  2.5266319883310540   T   T   T
 11.7023349016338756 18.4562444431048434  4.1514077562622100   T   T   T
 18.7787734749648934  8.5295772506200347 10.8520511469103820   F   F   F
 11.7008804906938906 11.3352888174409276  4.1573195174770614   F   F   F
 18.7787080544272484  1.4014349178655012 10.8492270825398176   F   F   F
  6.5474638593835035  0.6322577255682056 11.2720848077796028   F   F   F
  3.6160356799057780 10.5612294807486045  4.5901610963495569   F   F   F
  6.5481273483286015  9.3000476195493356 11.2724455706043081   F   F   F
  3.6074427983756938 19.2347958827728149  4.5949714922634088   T   T   T
 13.7750691171761019 19.2281120687431439  2.0963507608511840   T   T   T
 16.7005116441645143  9.2968475592544007  8.7870249086159742   F   F   F
 13.7780873804518578 10.5659450369572578  2.0986204676250386   F   F   F
 16.6992200461243030  0.6349893134534030  8.7858842256012188   F   F   F
  5.6443006977888688  1.0155004225850983  0.8197981053596946   F   F   F
  4.5220815013698168 10.9453955673022065  7.5046151276589148   F   F   F
  5.6469418149170068  8.9178910597440932  0.8217505794400771   F   F   F
  4.5290183273868259 18.8496865023794875  7.5053577426874103   T   T   T
 14.6775398659958292 18.8481785572231217 12.5445293542163672   T   T   T
 15.7971303098141007  8.9208311773426932  5.8672136350823951   F   F   F
 14.6784587121613406 10.9440662166648863 12.5509678069861614   F   F   F
 15.7949735120762895  1.0089666654235989  5.8656020406217886   F   F   F
  2.4870668688766515  1.0581417862768039  0.6469646776383138   F   F   F
  7.6765789588078386 10.9953179931535026  7.3329126937312843   F   F   F
  2.4901806845818650  8.8730258231567571  0.6507371466446804   F   F   F
  7.6793226927584088 18.7925870273708071  7.3363051521072418   T   T   T
 17.8322533604494922 18.8018469079198169 12.7205761186426116   T   T   T
 12.6410432018399543  8.8724333394212422  6.0319795031738455   F   F   F
 17.8326743643297512 10.9925126764646226 12.7236799235338083   F   F   F
 12.6380030818775175  1.0576853826695998  6.0282856940936318   F   F   F
  1.4793797015964947  0.7886657050734545 11.0151823065486276   F   F   F
  8.6873252157826180 10.7407685545142861  4.3347347708593666   F   F   F
  1.4798647292027700  9.1414116576858682 11.0200963850234643   F   F   F
  8.6946160751641237 19.0565710167813265  4.3438969767776143   T   T   T
 18.8339630352430270 19.0704304933843893  2.3495693055629441   T   T   T
 11.6229512567406079  9.1487888226805065  9.0298423837303883   F   F   F
 18.8382974290218357 10.7246219516896968  2.3564493282291430   F   F   F
 11.6211852188152651  0.7830713656426604  9.0267384791996843   F   F   F
  4.0956977602905660  1.4195695454257147  9.5397163252099002   F   F   F
  6.0705410731528779 11.3472567727405806  2.8639293411659463   F   F   F
  4.0951081640775788  8.5128189558422527  9.5416207803374835   F   F   F
  6.0687485985256178 18.4552766142173041  2.8743057037588726   T   T   T
 16.2284777197121635 18.4335739393910956  3.8323196638597845   T   T   T
 14.2411306999311904  8.5174192797945505 10.5122117006808402   F   F   F
 16.2287777188812328 11.3561574331827675  3.8321267333635887   F   F   F
 14.2387649427704606  1.4155335047788125 10.5090780155969732   F   F   F
  8.5936138879004904 16.4429516202794055  9.2098649881091195   T   T   T
  1.5621296527269442  6.5146822592313853  2.4872321304394980   F   F   F
  8.5880423563207646 13.3470409234013196  9.2052664716411634   T   T   T
  1.5600099671564520  3.4166725195033840  2.4847157977163654   F   F   F
 11.7128361362037126  3.4137148894151315  4.1979666397992252   F   F   F
 18.7483703505939800 13.3462950299693279 10.8782572680614109   T   T   T
 11.7130051990956456  6.5179065950824056  4.1990980994336864   F   F   F
 18.7562932496120460 16.4444265280149793 10.8835950979892147   T   T   T
  6.4352178110864200 17.3612168989441606 11.1709494026745162   T   T   T
  3.7229095609621496  7.4295663359625221  4.4648994017144590   F   F   F
  6.4277464714420525 12.4310190181507583 11.1618310335637609   T   T   T
  3.7220250006404583  2.5019377698013852  4.4640572151828417   F   F   F
 13.8796717420971234  2.5008162191042080  2.2193420867219547   F   F   F
 16.5931423680230665 12.4295933273781074  8.8950075916362330   T   T   T
 13.8801925717533567  7.4314720588361141  2.2213632935629288   F   F   F
 16.6088288779449549 17.3640581965805190  8.8959548954752741   T   T   T
  5.5357754229359495 16.4349222040587968  0.5473114065034287   T   T   T
  4.6128038067475066  6.5070790410443262  7.2072343759496524   F   F   F
  5.5238235514968137 13.3581715185482803  0.5368468321183623   T   T   T
  4.6127327071471145  3.4258865399064207  7.2059458845579538   F   F   F
 14.7599796133871397  3.4235257628113658 12.8420619864853531   F   F   F
 15.6782848051194748 13.3353360395840390  6.1690285320710156   T   T   T
 14.7614898852430549  6.5079642340839188 12.8448705496187863   F   F   F
 15.6892475346920506 16.4556562134213351  6.1713654966202585   T   T   T
  2.3662092001634911 16.4404946141167372  0.3365747076546735   T   T   T
  7.7736820208615018  6.5116858055001998  7.0151636702406188   F   F   F
  2.3605838715974223 13.3633160673408273  0.3249568712694005   T   T   T
  7.7730609921445568  3.4189921167583583  7.0147609526045587   F   F   F
 17.9268133869351409  3.4178004092461087 13.0404165184158245   F   F   F
 12.5343804386251687 13.3337391598443080  6.3646538555489371   T   T   T
 17.9274451194195166  6.5133099820020535 13.0420402497531569   F   F   F
 12.5467253287658149 16.4675643653078509  6.3598325137515381   T   T   T
  1.4174817760112746 17.5009623428013690 10.9185223788262569   T   T   T
  8.7541942213677260  7.5786167517435796  4.2407431842368055   F   F   F
  1.4074074991623664 12.2940344854523040 10.9103382980021486   T   T   T
  8.7537829444428432  2.3528413733950231  4.2401346249543481   F   F   F
 18.9044364848007866  2.3632888855151446  2.4530723895472595   F   F   F
 11.5495317914668050 12.3041152153067799  9.1408781198632205   T   T   T
 18.9057378404438552  7.5674673235778851  2.4534919089050837   F   F   F
 11.5561352028314985 17.4930503997960969  9.1306336411114124   T   T   T
  3.9723848533140078 16.4400035836870266  9.3934445434679184   T   T   T
  6.2052953616959252  6.5129377819419219  2.7113917801424545   F   F   F
  3.9632502664228362 13.3521041538739844  9.3863670029836594   T   T   T
  6.2041594540789751  3.4190993635120566  2.7105403449950596   F   F   F
 16.3528296243368985  3.4201978342449983  3.9791800989176522   F   F   F
 14.1218639341195278 13.3499436998944603 10.6602387186711667   T   T   T
 16.3545404341235532  6.5102555711276411  3.9793437999438379   F   F   F
 14.1308042834146228 16.4418610118632387 10.6530707483842413   T   T   T
  7.0870883407334162 15.0166861679336776  3.4281905351824427   T   T   T
  7.6478108949934844 14.8740607763579380  5.6947196899674921   T   T   T
  8.8633417981078146 14.9000573256919466  3.1856850579101916   T   T   T
  9.3768232587826663 14.7809756621189710  5.8507232643163842   T   T   T
 10.0024690458891676 14.8419937764642267  2.8865102429919780   T   T   T
